#=======================================================
#Created using the Atomic Simulation Environment (ASE)
#=======================================================
lattice_vector 10.0409518200000001 0.0017489000000000 -0.0009190900000000 
lattice_vector -0.0013040200000000 10.0409575800000006 0.0082817000000000 
lattice_vector 0.0006390200000000 -0.0085999900000000 10.0410015500000007 
atom 7.5308671250000003 2.5051010775000004 7.5321322700000009 Ga
atom 2.5097392050000003 7.5247054174999999 7.5367326650000006 In
atom 7.5298956050000001 7.5298798625000005 2.5157723450000002 In
atom 7.5302151149999998 7.5255798675000003 7.5362731200000006 In
atom 2.5094196950000001 7.5290054125000001 2.5162318900000002 In
atom 7.5305476150000006 2.5094010725000002 2.5116314950000000 Ga
atom 2.5103912150000003 2.5042266275000005 7.5325918150000009 Ga
atom 2.5100717050000001 2.5085266225000002 2.5120910400000001 Ga
atom 7.5304257016799996 4.6760979122800004 5.0236707297000001 In
atom 2.5089782716800002 9.7000022472800005 0.0077703497000000 In
atom 7.5300175183200002 5.3631830227200012 0.0037331103000000 In
atom 5.0197956783199995 7.5275850396600008 4.6848584523000003 Ga
atom 0.0002912883200000 2.5019318046600003 9.7016779223000000 In
atom -0.0006367783200000 7.5261257903400001 5.3681061027000005 Ga
atom 4.6789108031200008 5.0148437849000000 7.5344637165600004 In
atom 9.6997192131199998 -0.0004605601000000 2.5093625465600002 In
atom 5.3623475368800007 -0.0055160799000000 7.5302603684400005 Ga
atom 2.5098611183200004 5.3580085777200006 5.0246934303000002 In
atom 7.5306695283199998 0.3427042327200001 -0.0004077397000000 Ga
atom 2.5096302816800002 4.6795234572800002 0.0036294997000000 In
atom 5.0204911416800000 2.5065214503400002 5.3635057077000008 In
atom -0.0009562883200000 7.5304257853400003 0.3476053277000000 In
atom -0.0000282216800000 2.5062317996600001 4.6811771473000006 In
atom 5.3613760168800013 5.0192627051000001 2.5139004434400003 In
atom 0.3418716268800001 -0.0063905299000000 7.5307199134400005 In
atom 4.6792433031200007 -0.0013350101000000 2.5098220915600002 In
atom 2.5105131283200004 0.3375297877200000 5.0205525803000004 In
atom 5.0201716316800002 2.5108214453400000 0.3430049327000000 In
atom 0.3409001068800001 5.0183882551000005 2.5143599884400003 In
atom 7.5297736916800000 9.6965767022799998 5.0278115797000007 Ga
atom 5.0201151883200001 7.5232850446600006 9.7053592273000007 In
atom 9.6993867131199991 5.0157182348999996 7.5340041715600004 In
atom 6.2252994536999999 3.9214571383400005 6.5895653257000006 O
atom 3.8149391426600001 8.9398993942200011 8.4816350487000012 O
atom 8.8353431405399991 6.1151405997800001 1.5706309979000002 O
atom 6.2251353131000000 6.1087690926600002 8.4790790277000010 O
atom 6.5863057583400000 6.2231783819100013 3.9305633370100006 O
atom 8.4746371752999998 3.8093773609100006 8.9489037150900010 O
atom 1.5656301094999998 8.8310781048900004 6.1221144619099999 O
atom 8.4741440068599996 6.2216323772900006 6.1193288859899999 O
atom 3.9255529169000005 6.5822199985800012 6.2304943920100007 O
atom 8.9456303063400000 8.4728584712200004 3.8217514346100003 O
atom 6.1152985688600001 1.5598864713800003 8.8368135833900006 O
atom 6.1142352578999999 8.4703012838199996 6.2318509899900008 O
atom 3.8149873663000005 6.1126493516599991 3.4587988343000000 O
atom 6.2253476773399994 1.0942070957800001 1.5667291113000001 O
atom 1.2049436794599999 3.9189658902200000 8.4777331620999998 O
atom 3.8151515069000004 3.9253373973400008 1.5692851323000001 O
atom 3.4539810616599995 3.8109281080900006 6.1178008229900005 O
atom 1.5656496446999999 6.2247291290900009 1.0994604449100001 O
atom 8.4746567104999997 1.2030283851100001 3.9262496980900004 O
atom 1.5661428131399999 3.8124741127100004 3.9290352740100003 O
atom 6.1147339031000003 3.4518864914199998 3.8178697679900004 O
atom 1.0946565136599999 1.5612480187800002 6.2266127253900008 O
atom 3.9249882511400003 8.4742200186200005 1.2115505766100001 O
atom 3.9260515621000001 1.5638052061800003 3.8165131700100003 O
atom 1.2038520236999999 8.9453614733400020 1.5736649457000000 O
atom 8.8357475526599991 3.9245950492200006 3.4565338787000002 O
atom 3.8158387505399998 1.0894873647800001 6.5874504679000010 O
atom 1.2049919031000000 1.0917158476600002 3.4548969477000000 O
atom 1.5668013683399999 1.1975251469100001 8.9473828070100012 O
atom 3.4531897452999996 8.8332816959100011 3.9330033350900004 O
atom 6.5864385194999997 3.8157737598900003 1.0970132919100000 O
atom 3.4540005968599998 1.2045791322899999 1.0951468059900000 O
atom 8.9463613269000000 1.5669156535800002 1.2053932220100001 O
atom 3.9261259163400002 3.4472052362199994 8.8385709046100001 O
atom 1.0938511388599998 6.5837908063800006 3.8209132033900004 O
atom 1.0940918478999999 3.4532480388200000 1.2076689099900000 O
atom 8.8364347963000007 1.0887450166600001 8.4746992143000011 O
atom 1.2045392673399999 6.1095114407799995 6.5918302813000009 O
atom 6.2244480694600002 8.9446191252200009 3.4609136921000001 O
atom 8.8352949168999988 8.9423906423400012 6.5934672123000011 O
atom 8.4734854516600002 8.8365813430900015 1.1009813529900001 O
atom 6.5870970746999999 1.2008247940899999 6.1153608249100007 O
atom 3.4538483004999998 6.2183327301100011 8.9513508680900014 O
atom 6.5862862231400001 8.8295273577100009 8.9532173540100004 O
atom 1.0939254930999998 8.4671908364200004 8.8429709379900014 O
atom 6.1141609036599993 6.5869012537800007 1.2097932553899999 O
atom 8.9464356811400005 3.4503156836199995 6.2274509566100003 O
atom 8.9461949721000007 6.5808584511800010 8.8406952500100004 O
