#=======================================================
#Created using the Atomic Simulation Environment (ASE)
#=======================================================
lattice_vector 9.7007950500000000 -0.1807594800000000 -0.7453250400000000 
lattice_vector 4.9078109899999998 2.8872181900000000 -0.3473960700000000 
lattice_vector -1.3115300900000000 -0.0953411800000000 14.3680496299999998 
atom -1.1475888287500000 -0.0834235325000000 12.5720434262499996 Ga
atom -0.1639412612500000 -0.0119176475000000 1.7960062037500000 In
atom 2.1953036718242167 -0.1357315929285272 11.1262641837807514 In
atom 6.1939612881757826 -0.1403690670714728 2.4964604062192475 Al
atom 5.3742549819257830 -0.1999573045714728 11.4764914249692485 Al
atom 3.0150099780742168 -0.0761433554285272 2.1462331650307527 Al
atom 4.8503975250000000 -0.0903797400000000 -0.3726625200000000 Ga
atom 3.6335279969257828 1.3817021204285271 4.4914310949692471 Al
atom 4.8131504280742163 1.3197951495714728 9.1565599450307520 Al
atom 9.6635479530742181 1.2294154095714729 8.7838974250307515 Al
atom 8.4839255219257819 1.2913223804285272 4.1187685749692466 Al
atom 1.1796225019257829 -0.0619069745714728 4.6651291299692472 Al
atom 7.2096424580742173 -0.2141936854285272 8.9575954600307526 Al
atom 2.5231861812089158 -0.1118962988819390 7.5342519199612488 Ga
atom 5.8660787787910840 -0.1642043611180610 6.0884726700387510 Ga
atom -0.6557650450000000 -0.0476705900000000 7.1840248149999999 Al
atom 9.3669638470757839 1.2643706371285275 12.3978776807192475 O
atom 8.7828061665242174 1.3754710700714730 0.5057989772807525 O
atom 3.9301121029242174 1.3467468928714728 0.8774508392807525 O
atom 4.5142697834757826 1.2356464599285271 12.7695295427192477 O
atom -0.9770899170500000 -0.0710291791000000 10.7041969743499994 O
atom -0.3344401729500000 -0.0243120009000000 3.6638526556500000 O
atom 6.8149021322757823 -0.2369828216714728 12.5785236371192468 O
atom 1.5743628277242170 -0.0391178383285272 1.0442009528807525 O
atom 2.0248047470089157 -0.1481259472819390 12.9941107793612485 O
atom 6.3644602129910837 -0.1279747127180610 0.6286138106387511 O
atom 6.2893571198910836 1.2229329446819390 10.2077089555387506 O
atom 2.1550247665089159 1.3594604081180608 3.4392714264612487 O
atom 7.0077188301089164 1.3881845853180612 3.0676195644612485 O
atom 11.1420511834910823 1.2516571218819392 9.8360570935387504 O
atom 3.9336078446910836 -0.1629317865180610 10.3744590691387515 O
atom 4.4556571153089166 -0.1131688734819390 3.2482655208612488 O
atom 3.3369438201499997 1.4166573517000001 8.1054110707499998 O
atom 5.1120311434499994 1.4039438355000002 5.5435906272499995 O
atom 9.9601321298499990 1.1944601783000000 5.1699174492499997 O
atom 8.1850448065500014 1.2071736944999998 7.7317378927499991 O
atom 2.6936851060242168 -0.0995019445285272 5.6664053243807526 O
atom 5.6955798539757829 -0.1765987154714728 7.9563192656192481 O
atom 0.7848821053500000 -0.0846961071000000 8.2860570271499991 O
atom 7.6043828546499999 -0.1914045529000000 5.3366675628499998 O
