#=======================================================
#Created using the Atomic Simulation Environment (ASE)
#=======================================================
lattice_vector 10.5341732799999992 -0.0316335500000000 -0.0504396800000000 
lattice_vector 0.0268251700000000 9.0041894399999993 -0.0271752500000000 
lattice_vector 0.0461535800000000 0.0286765100000000 9.6293331200000001 
atom 1.6983282966100000 7.6776179071099984 6.6806504568099996 Ga
atom 6.9654149366099993 7.6618011321099981 6.6554306168099995 Al
atom 3.6368448139099994 1.3363915578299996 1.8755782624700001 In
atom 8.9039314539099994 1.3205747828299996 1.8503584224700000 In
atom 1.0087201782499999 3.1631462122099996 1.8826987819700001 Al
atom 6.2758068182499986 3.1473294372099994 1.8574789419700002 Al
atom 4.3264529322699996 5.8508632527300000 6.6735299373099997 In
atom 9.5935395722699983 5.8350464777299997 6.6483100973099996 Ga
atom 0.9604594704199999 5.9219254487950002 -0.0223956658600000 In
atom 6.2275461104199996 5.9061086737949999 -0.0476155058600000 Al
atom 4.3565291295800002 3.0807854712050005 4.7846671358600004 Al
atom 9.6236157695799971 3.0649686962050002 4.7594472958600003 In
atom 1.7180499782999998 1.4319230017450000 4.8022773018600002 Al
atom 6.9851366182999994 1.4161062267450000 4.7770574618600001 In
atom 3.6450922016999998 7.5994644282549997 9.5893272881399998 Al
atom 8.9121788416999994 7.5836476532549995 9.5641074481399997 In
atom 0.9317827370399999 0.2961162984900000 9.6146515962599999 In
atom 6.1988693770399985 0.2802995234900000 9.5894317562599998 In
atom 4.4312671357999989 8.7352137784899995 4.7576943275000003 Ga
atom 9.6983537757999994 8.7193970034900001 4.7324744875000002 In
atom 1.7859207410000000 4.7812788123899992 4.7822613575000004 Ga
atom 7.0530073809999996 4.7654620373899990 4.7570415175000003 Al
atom 3.5771291318399996 4.2500512645899997 9.5900845662599998 Al
atom 8.8442157718400001 4.2342344895899995 9.5648647262599997 In
atom 3.6484887675500000 1.4253916645749998 7.5567430607900006 Al
atom 8.9155754075499996 1.4095748895749998 7.5315232207900005 Ga
atom 1.6949919873700001 7.5937795721649994 2.7327656200899999 Ga
atom 6.9620786273699995 7.5779627971649992 2.7075457800899998 Al
atom 4.3235458257499992 5.9110919488249998 2.7252102965899998 Ga
atom 9.5906324657499979 5.8952751738249995 2.6999904565899997 Ga
atom 1.0199349291699999 3.1080792879149999 7.5642983842900007 In
atom 6.2870215691700002 3.0922625129150001 7.5390785442900006 In
atom 4.4255760102299995 6.0362987523150000 8.5599069865500006 O
atom 9.6926626502300000 6.0204819773149998 8.5346871465500005 O
atom 0.9276893036499999 2.9889519045449999 3.7710203157700000 O
atom 6.1947759436499990 2.9731351295449997 3.7458004757700003 O
atom 3.5568869461100001 1.5223648277650002 3.7628127862700000 O
atom 8.8239735861099984 1.5065480527650001 3.7375929462700004 O
atom 1.7963783677700000 7.5028858290949980 8.5681145160500005 O
atom 7.0634650077699987 7.4870690540949987 8.5428946760500004 O
atom 2.7944925143500003 0.0907714228750000 6.0433655392299999 O
atom 8.0615791543499995 0.0749546478750000 6.0181456992299998 O
atom 2.5344037092899994 8.9193380367049979 1.2032738757300001 O
atom 7.8014903492899998 8.9035212617049986 1.1780540357300000 O
atom 5.1550172973499997 4.5714103391250003 1.2037624262300000 O
atom 10.4221039373500002 4.5555935641250001 1.1785425862300001 O
atom 0.1738789262900000 4.4386991204550004 6.0428769887299998 O
atom 5.4409655662899983 4.4228823454550001 6.0176571487299997 O
atom 0.1067752983700000 7.4496972729649986 1.1422970781699999 O
atom 5.3738619383699993 7.4338804979649984 1.1170772381700000 O
atom 5.2213824679899989 1.5599533624549997 5.9502730068699998 O
atom 10.4884691079899994 1.5441365874549997 5.9250531668699997 O
atom 2.5919702241699998 2.9545069237149999 5.9586979383700003 O
atom 7.8590568641700003 2.9386901487149997 5.9334780983700002 O
atom 2.7361875421900002 6.0551437117050000 1.1338721466699999 O
atom 8.0032741821899975 6.0393269367049998 1.1086523066700000 O
atom 5.1714532150699988 7.5214198904799998 6.0963095123300004 O
atom 10.4385398550700010 7.5056031154799996 6.0710896723300003 O
atom 0.1582737730100000 1.4892057462799999 1.3236578987900001 O
atom 5.4253604130099999 1.4733889712799999 1.2984380587900002 O
atom 2.7963773719099998 3.0120095635799999 1.3064281862900000 O
atom 8.0634640119099981 2.9961927885800002 1.2812083462900001 O
atom 2.5333496161699998 5.9986160731800000 6.1135392248300002 O
atom 7.8004362561699994 5.9827992981799998 6.0883193848300001 O
atom 1.9459475562199999 1.5498362066850000 8.3252783271799995 O
atom 7.2130341962199989 1.5340194316850000 8.3000584871799994 O
atom 3.4048254643399996 7.4738659186349992 3.4856649866599998 O
atom 8.6719121043400005 7.4580491436349989 3.4604451466600001 O
atom 0.7669901171400000 6.0411039957349999 3.5026229466599998 O
atom 6.0340767571399994 6.0252872207349997 3.4774031066599997 O
atom 4.5837829034199995 2.9825981295849999 8.3083203671800003 O
atom 9.8508695434199982 2.9667813545849997 8.2831005271800002 O
atom 4.4448494782099992 0.0215902245400000 8.6452888465100006 O
atom 9.7119361182099997 0.0057734495400000 8.6200690065100005 O
atom 0.9090619857900000 9.0040619034599985 3.8204491194900001 O
atom 6.1761486257899989 8.9882451284599973 3.7952292794900004 O
atom 3.5292463711300002 4.5120671748399994 3.8213724739900004 O
atom 8.7963330111299989 4.4962503998400001 3.7961526339900002 O
atom 1.8246650928699999 4.5135849531599996 8.6443654920099995 O
atom 7.0917517328699997 4.4977681781599994 8.6191456520100012 O
