#=======================================================
#Created using the Atomic Simulation Environment (ASE)
#=======================================================
lattice_vector 24.7648092800000015 0.0000166500000000 -0.0956330900000000 
lattice_vector -0.0000081400000000 6.5013613200000000 -0.0000254900000000 
lattice_vector -1.6808630600000001 -0.0000091300000000 6.2644392499999997 
atom 10.9110288904600008 0.0000056957750000 1.2407448068449998 Ga
atom 10.9110248204600015 3.2506863557750001 1.2407320618450000 Ga
atom 23.2934335304599998 0.0000140207750000 1.1929282618449999 Ga
atom 23.2934294604600005 3.2506946807750001 1.1929155168449999 Ga
atom -0.2094873104600001 -0.0000065007750000 4.9758778981549998 Ga
atom -0.2094913804600000 3.2506741592249999 4.9758651531549996 Ga
atom 12.1729173295400006 0.0000018242250000 4.9280613531549999 In
atom 12.1729132595400014 3.2506824842249999 4.9280486081549997 Ga
atom 4.7198245354599999 1.6253418632749999 1.2646467068449998 Ga
atom 4.7198204654599998 4.8760225232749992 1.2646339618449998 Ga
atom 17.1022291754599998 1.6253501882749999 1.2168301618449999 In
atom 17.1022251054600005 4.8760308482749997 1.2168174168449999 Ga
atom 5.9817129745400006 1.6253379917250002 4.9519632531550002 Ga
atom 5.9817089045400005 4.8760186517249995 4.9519505081549999 Ga
atom 18.3641176145399996 1.6253463167250000 4.9041467081550003 Ga
atom 18.3641135445400003 4.8760269767250000 4.9041339631550001 In
atom 9.2605282080800020 1.6253410681450000 4.2571852386550004 In
atom 9.2605241380800010 4.8760217281449991 4.2571724936550002 In
atom 21.6429328480800010 1.6253493931450000 4.2093686936550005 In
atom 21.6429287780800017 4.8760300531449996 4.2093559486550003 In
atom 1.4410093019200001 1.6253387868550000 1.9594247213450000 In
atom 1.4410052319200002 4.8760194468549996 1.9594119763450000 In
atom 13.8234139419200002 1.6253471118550000 1.9116081763449999 In
atom 13.8234098719199991 4.8760277718550000 1.9115954313449999 In
atom 3.0693279230800004 -0.0000034243550000 4.2810998836550000 In
atom 3.0693238530800002 3.2506772356450000 4.2810871386549998 In
atom 15.4517325630800002 0.0000049006450000 4.2332833386550002 In
atom 15.4517284930800010 3.2506855606450000 4.2332705936549999 In
atom 7.6322136569200003 0.0000026193550000 1.9355228213450000 In
atom 7.6322095869200011 3.2506832793550000 1.9355100763449999 In
atom 20.0146182969200019 0.0000109443550000 1.8877062763449999 In
atom 20.0146142269200027 3.2506916043550000 1.8876935313449998 In
atom 9.5057114800600004 0.0000028949650000 2.6980156695349997 O
atom 9.5057074100600012 3.2506835549649997 2.6980029245349999 O
atom 21.8881161200600012 0.0000112199650000 2.6501991245349998 O
atom 21.8881120500600019 3.2506918799649998 2.6501863795350000 O
atom 1.1958300999400002 -0.0000036999650000 3.5186070354649996 O
atom 1.1958260299400001 3.2506769600350003 3.5185942904649994 O
atom 13.5782347399400010 0.0000046250350000 3.4707904904649993 O
atom 13.5782306699400017 3.2506852850350003 3.4707777454649995 O
atom 3.3145071250600004 1.6253390624650002 2.7219175695350000 O
atom 3.3145030550600003 4.8760197224650002 2.7219048245349997 O
atom 15.6969117650599976 1.6253473874650000 2.6741010245349996 O
atom 15.6969076950599984 4.8760280474649997 2.6740882795349998 O
atom 7.3870303849400010 1.6253407925349999 3.4946923904649996 O
atom 7.3870263149399999 4.8760214525350003 3.4946796454649993 O
atom 19.7694350249400017 1.6253491175349999 3.4468758454649993 O
atom 19.7694309549400025 4.8760297775349999 3.4468631004649994 O
atom 8.8433397509999985 -0.0000011743250000 5.5354241174249994 O
atom 8.8433356809999992 3.2506794856750001 5.5354113724250000 O
atom 21.2257443909999992 0.0000071506750000 5.4876075724249995 O
atom 21.2257403210000000 3.2506878106750001 5.4875948274250002 O
atom 1.8582018290000000 0.0000003693250000 0.6811985875750000 O
atom 1.8581977589999998 3.2506810293249999 0.6811858425749999 O
atom 14.2406064690000029 0.0000086943250000 0.6333820425750000 O
atom 14.2406023990000037 3.2506893543249999 0.6333692975749999 O
atom 2.6521353960000011 1.6253349931750001 5.5593260174249997 O
atom 2.6521313260000010 4.8760156531750001 5.5593132724249994 O
atom 15.0345400359999992 1.6253433181750001 5.5115094724249998 O
atom 15.0345359660000000 4.8760239781749997 5.5114967274249995 O
atom 8.0494021140000029 1.6253448618249999 0.6572839425750000 O
atom 8.0493980440000019 4.8760255218250004 0.6572711975750000 O
atom 20.4318067540000001 1.6253531868250000 0.6094673975750000 O
atom 20.4318026840000009 4.8760338468250000 0.6094546525750000 O
atom -1.1993536700200000 1.6253335797100001 4.6542807240699995 O
atom -1.1993577400200000 4.8760142397099999 4.6542679790700001 O
atom 11.1830509699800000 1.6253419047100000 4.6064641790699996 O
atom 11.1830468999799990 4.8760225647099995 4.6064514340699994 O
atom 11.9008911800200021 1.6253462752899999 1.5623292359300001 O
atom 11.9008871100200011 4.8760269352900005 1.5623164909300000 O
atom 24.2832958200199975 1.6253546002899999 1.5145126909300000 O
atom 24.2832917500199983 4.8760352602900001 1.5144999459299999 O
atom 4.9918506849800002 -0.0000025877900000 4.6303788240700001 O
atom 4.9918466149800000 3.2506780722099999 4.6303660790699999 O
atom 17.3742553249800018 0.0000057372100000 4.5825622790699994 O
atom 17.3742512549800026 3.2506863972100000 4.5825495340700000 O
atom 5.7096908950200005 0.0000017827900000 1.5862438809299999 O
atom 5.7096868250200004 3.2506824427900001 1.5862311359299999 O
atom 18.0920955350200003 0.0000101077900000 1.5384273359300000 O
atom 18.0920914650200011 3.2506907677900001 1.5384145909300000 O
