#=======================================================
#Created using the Atomic Simulation Environment (ASE)
#=======================================================
lattice_vector 6.2762482000000004 0.0036023200000000 0.0439487800000000 
lattice_vector -3.1401724000000000 5.4323224200000002 -0.0537166900000000 
lattice_vector -0.1045535100000000 0.0849262800000000 14.9596296800000008 
atom -0.1015626781228907 3.7041367561459797 14.3151501931423493 In
atom 1.5506123146514885 2.7321167502830876 2.4883877081987658 In
atom 3.1206985146514885 0.0159555402830876 2.5152460531987657 Al
atom -1.5875117853485117 2.7303155902830878 2.4664133181987657 In
atom 3.1374413647214023 1.8131756685709330 0.0113936236588849 Ga
atom -0.0304947740985117 0.0247701652830876 4.3632253731987660 In
atom -1.6230456902785977 4.5699988585709326 7.4423757286588854 Ga
atom -0.0529594902785979 1.8538376485709329 7.4692340736588854 In
atom 1.5150784097214023 4.5718000185709329 7.4643501186588850 Ga
atom -0.0362167343728907 3.6510578311459798 4.9653816431423499 Ga
atom -0.0754243006228907 3.6829051861459798 10.5752427731423495 In
atom 3.0720954209714022 1.8662545935709332 9.3611621736588848 Al
atom 4.6197168106271098 0.9791609211459794 12.4940292181423498 In
atom 3.0496306106271094 3.6953221311459798 12.4671708731423507 In
atom 1.4815927106271098 0.9773597611459794 12.4720548281423493 In
atom -0.0697023403485117 0.0566175202830876 9.9730865031987666 Ga
atom 4.6351816123714018 0.9517991863709331 1.2985886216588851 O
atom 3.1278988603714022 3.5593139479709333 1.2728046104588850 O
atom 1.6225824763714023 0.9500700727709330 1.2774932072588852 O
atom -0.0953179502985117 0.0774244588830876 13.6381957747987670 O
atom -0.0106011244228907 3.6302508925459795 1.3002723715423496 O
atom 1.5351476070714019 2.7594784307709332 13.6838283056588867 O
atom 3.0424303590714019 0.1519636691709330 13.7096123168588857 O
atom 4.5477467430714027 2.7612075443709334 13.7049237200588863 O
atom 1.4615235132771103 2.7896813489459795 6.2525766411423502 O
atom -0.0457592387228898 5.3971961105459796 6.2267926299423495 O
atom -1.5510756227228901 2.7879522353459794 6.2314812267423498 O
atom 3.1118257547714023 1.8339826071709331 3.6765028952588850 O
atom -0.0440867303985117 0.0358105816830876 6.3079772315987661 O
atom -1.5339569820228902 4.5124343133459801 3.6781866451423495 O
atom -0.0266742300228902 1.9049195517459796 3.7039706563423498 O
atom 1.4786421539771102 4.5141634269459798 3.6992820595423495 O
atom -1.7121344926985116 4.6275634580830873 11.2065648111987652 O
atom -0.0792448446985115 1.8027557996830879 11.2344974899987662 O
atom 1.5515145713014893 4.6294366644830873 11.2294181767987666 O
atom -0.0618323443228907 3.6718647697459796 8.6304909147423494 O
atom 3.0585034646714022 1.8772950099709331 11.3059140320588849 O
atom 4.7088056120014885 0.9215963224830876 8.7298402851987671 O
atom 3.0759159640014881 3.7464039808830880 8.7019076063987661 O
atom 1.4451565480014887 0.9197231160830877 8.7069869195987675 O
