#=======================================================
#Created using the Atomic Simulation Environment (ASE)
#=======================================================
lattice_vector 9.0238629199999991 0.0297066700000000 -0.0342062100000000 
lattice_vector -0.0294302900000000 9.0231640599999992 0.0195703900000000 
lattice_vector 0.0336737200000000 -0.0198977800000000 9.0234361700000001 
atom 6.7857949074999988 2.2631476824999996 6.7468150675000000 Al
atom 2.2591483024999999 6.7598763774999995 6.7737033675000005 Al
atom 6.7542429024999988 6.7846786024999988 2.2448821775000001 Al
atom 6.7710797624999985 6.7747297124999992 6.7566002625000001 Al
atom 2.2423114424999997 6.7698252674999990 2.2619852825000000 Al
atom 6.7689580474999991 2.2730965724999996 2.2350969825000000 Al
atom 2.2738634474999997 2.2482943474999995 6.7639181725000004 Al
atom 2.2570265874999995 2.2582432374999994 2.2522000874999999 Al
atom 6.7710195348599989 4.2171255644599990 4.4951832292400002 Al
atom 2.2275360698599997 8.7238031494600001 0.0103534442400000 Al
atom 6.7521814151399990 4.8406496105399999 -0.0152040692400000 Al
atom 4.5055506960199994 6.7729540145199989 4.2024959427200006 Al
atom 0.0251712410200000 2.2365697595199996 8.7215319377200000 Al
atom -0.0040909510200000 6.7567476304799996 4.8331927072800003 Al
atom 4.2156602657199995 4.5105020032200001 6.7614222286399999 Al
atom 8.7254700107200005 0.0237221982200000 2.2228158436399998 Al
atom 4.8439980892799994 0.0009400267800000 6.7493110113599997 Al
atom 2.2570868151400001 4.8158473855399997 4.5136171207600002 Al
atom 6.7668965601399993 0.3290675805400000 -0.0249892642400000 Al
atom 2.2422512148599996 4.2122211194599997 0.0005682492400000 Ga
atom 4.5225556539799996 2.2600189354799998 4.8063044072800007 Al
atom -0.0209278110200000 6.7666965204799991 0.3214746222800000 Al
atom 0.0083343810200000 2.2465186495199996 4.2098138527200000 Al
atom 4.8124460842799994 4.5224709467799995 2.2473781213600001 Ga
atom 0.3320666292800000 -0.0139133082200000 6.7664141163600000 Al
atom 4.2135385507200001 0.0088688632200000 2.2399189486400002 Al
atom 2.2718019601399999 0.3042653555400000 4.5038319257600001 Al
atom 4.5057187939799999 2.2699678254799998 0.2945863222800000 Al
atom 0.3005146242800000 4.5076176117799998 2.2644812263600000 Al
atom 6.7563043898599995 8.7287075944599994 4.5049684242400003 Al
atom 4.5223875560199991 6.7630051245199994 8.7142140277200006 Ga
atom 8.7275917257200000 4.5253553382199998 6.7443191236400004 Al
atom 5.6053777273299996 3.5334223391799999 5.9058182998099999 O
atom 3.4312661408899996 8.0341339857400005 7.6202189851700002 O
atom 7.9283294233099992 5.5181447284599985 1.3894729452300001 O
atom 5.6052925834699998 5.4967313216199987 7.6064906447900000 O
atom 5.9145737202399991 5.6060692607399991 3.5178579105100001 O
atom 7.6349600787999989 3.4361458503000000 8.0184483344299995 O
atom 1.4023312557999998 7.9329008652999997 5.5071584019700000 O
atom 7.6184008201599989 5.6073163986599992 5.4785362280900003 O
atom 3.5299018378799998 5.9184743077299986 5.5939939731299999 O
atom 8.0282187105599991 7.6344579532099992 3.4149454206500001 O
atom 5.5205742666399988 1.4081949089899999 7.9228452285500000 O
atom 5.4915710599199992 7.6213052050699988 5.5902162526700003 O
atom 3.4227286226699998 5.4995506108199992 3.1029820501899996 O
atom 5.5968402091099998 0.9988389642600000 1.3885813648300001 O
atom 1.0997769266899999 3.5148282215399997 7.6193274047699999 O
atom 3.4228137665299996 3.5362416283799996 1.4023097052100000 O
atom 3.1135326297599994 3.4269036892599996 5.4909424394899995 O
atom 1.3931462711999998 5.5968270996999987 0.9903520155700000 O
atom 7.6257750941999989 1.1000720846999998 3.5016419480300001 O
atom 1.4097055298399999 3.4256565513399999 3.5302641219100002 O
atom 5.4982045121199992 3.1144986422699992 3.4148063768700001 O
atom 0.9998876394399998 1.3985149967899999 5.5938549293499999 O
atom 3.5075320833600001 7.6247780410099990 1.0859551214500001 O
atom 3.5365352900799998 1.4116677449299999 3.4185840973300001 O
atom 1.0618942623300001 8.0400999241799997 1.4209885148100001 O
atom 7.9410758858899992 3.5473541807399998 3.0816126001699997 O
atom 3.4479499683099997 0.9817604734599999 5.9085089402300000 O
atom 1.0912394084699999 0.9802448466199999 3.1020904697899998 O
atom 1.4341942652399997 1.0696850057399998 8.0368939055100004 O
atom 3.0914766137999998 7.9428234352999993 3.5336185494300003 O
atom 5.9121410007999993 3.4461210602999994 0.9685520169700000 O
atom 3.1043476451599998 1.0908299236599999 0.9741360530900000 O
atom 8.0397115828800008 1.4316945027299999 1.0553875881299999 O
atom 3.5478392555599996 3.0980736982099994 7.9339814156499999 O
atom 0.9770908016400000 5.9148724939899990 3.4380154435499999 O
atom 0.9775178849199999 3.1048187300699994 1.0858160776699999 O
atom 7.9662120876699998 0.9928730258200000 7.5878118351900001 O
atom 1.0870304641099999 5.4856187692599994 5.9271877498300007 O
atom 5.5801563816899993 8.0512124765399982 3.1002914097699996 O
atom 7.9368669415299991 8.0527281033799998 5.9067098802100002 O
atom 7.5939120847599995 7.9632879442599993 0.9719064444900000 O
atom 5.9366297361999996 1.0901495146999998 5.4751818005699997 O
atom 3.1159653491999992 5.5868518896999992 8.0402483330300001 O
atom 5.9237587048400000 7.9421430263400001 8.0346642969099999 O
atom 0.9883947671199999 7.6012784472699995 7.9534127618700001 O
atom 5.4802670944399985 5.9348992517899992 1.0748189343499999 O
atom 8.0510155483600006 3.1181004560099992 5.5707849064500001 O
atom 8.0505884650800006 5.9281542199299997 7.9229842723299999 O
