#=======================================================
#Created using the Atomic Simulation Environment (ASE)
#=======================================================
lattice_vector 4.8534288200000004 0.0102658300000000 -0.0000141300000000 
lattice_vector -2.4356077200000001 4.1977904500000003 -0.0017564900000000 
lattice_vector -0.0033314200000000 0.0072232400000000 13.2099037199999998 
atom -0.0004925304584800 0.0010679126945600 1.9530050055796799 Al
atom -0.0021582404584800 0.0046795326945600 8.5579568655796798 Al
atom -0.0028388895415200 0.0061553273054400 11.2568987144203199 Al
atom -0.0011731795415200 0.0025437073054400 4.6519468544203200 Al
atom 2.4221469938494136 1.4095830153787339 6.3557112848858086 Al
atom 2.4204812838494134 1.4131946353787339 12.9606631448858085 Ga
atom 2.4231320547663735 1.4074471899896139 2.4497012737264487 Al
atom 2.4214663447663733 1.4110588099896137 9.0546531337264486 Al
atom -0.0086423747663731 2.8078323300103865 10.7584318262735508 Al
atom -0.0069766647663731 2.8042207100103864 4.1534799662735509 Al
atom -0.0076573138494131 2.8056965046212663 6.8524218151141918 Al
atom -0.0059916038494131 2.8020848846212663 0.2474699551141912 Ga
atom 3.3656995117048005 0.0089266003212000 3.3024661288667998 O
atom 0.7398908171960003 1.2909859319408001 3.3019334828567999 O
atom -1.6902677939008002 2.9135611777380004 3.3012575582763999 O
atom 1.6745988628040005 2.9242935880592005 9.9061996171431996 O
atom -0.7486713460992001 1.2914525122620002 9.9068896717235990 O
atom 1.4843978882952003 0.0085624696788000 9.9074234611332006 O
atom 0.9349102160126934 1.4071758730053736 7.7051865381729288 O
atom 3.1625303415038930 2.6995010346249741 7.7046397621629286 O
atom 3.1679794504070933 0.1242858304221738 7.7057203275825286 O
atom 1.6827487071118934 0.1175291707433738 1.1007727964493288 O
atom 1.6772995982086936 2.6927443749461739 1.0996922310297288 O
atom 3.9103688326030932 1.4098543323629738 1.1002260204393288 O
atom -1.4958791526030935 2.8054251876370264 12.1079070795606718 O
atom 0.7317409728881067 4.0977503492566267 12.1073603035506707 O
atom 0.7371900817913070 1.5225351450538263 12.1084408689702716 O
atom -0.7480406615038933 1.5157784853750262 5.5034933378370710 O
atom -0.7534897704070932 4.0909936895778269 5.5024127724174710 O
atom 1.4795794639873068 2.8081036469946263 5.5029465618270716 O
