#=======================================================
#Created using the Atomic Simulation Environment (ASE)
#=======================================================
lattice_vector 10.6572071000000008 0.0430892400000000 -0.1589424600000000 
lattice_vector 5.3165721499999998 3.1441902100000001 -0.0496040400000000 
lattice_vector -0.1387945400000000 -0.1452345600000000 15.2100429100000003 
atom 8.7479944474386251 -0.1032754196595156 14.4438390219129982 In
atom 7.0816723450613761 0.0045203996595156 2.4290455618370013 Al
atom 5.3286035500000004 0.0215446200000000 -0.0794712300000000 In
atom 9.7399584200613756 1.5766155046595156 2.4042435418370012 In
atom 4.4113548700613752 1.5550708846595156 2.4837147718370014 Ga
atom 5.2765555975000007 -0.0329183400000000 5.6242948612500001 In
atom 1.7357194775613753 -0.0351785403404844 4.4097721555870022 Al
atom 8.8347410349386255 -0.0125038196595156 4.9375622031629982 In
atom 2.5888888049999998 1.4994778250000000 7.5802194350000001 Al
atom 7.9174923550000003 1.5210224450000001 7.5007482049999998 In
atom 8.7826930824386249 -0.0669667796595156 10.6413282944129985 In
atom 5.2418569625000000 -0.0692269800000000 9.4268055887499997 In
atom 3.4367402149386246 -0.1066657196595156 12.6220548881629977 In
atom 1.6836715250613752 -0.0896415003404844 10.1135382468370025 Al
atom 6.0950262899386241 1.4654293853404845 12.5972528681629985 Al
atom 11.4236298399386254 1.4869740053404845 12.5177816381629992 In
atom 3.6116528781000006 0.0023054040000000 1.2388132109500001 O
atom 1.6496668627613753 -0.1252239675404844 13.8399987597870027 O
atom 6.1636075100999994 1.5115167048000000 1.2150032717500001 O
atom 11.4917298041000002 1.6579671484000000 1.1367267293500001 O
atom 8.8687456972386247 0.0230786475404844 1.2111016902129985 O
atom 6.9067596819000014 -0.1044507240000000 13.8122872390500007 O
atom 9.6713771999000020 1.5305281851999999 13.7864931382500000 O
atom 4.3432549059000003 1.3840777416000001 13.8647696806500011 O
atom 7.1177903630386252 -0.0317430356595156 6.2558466441129985 O
atom 5.2945988877000003 -0.0140378472000000 3.6469892829499999 O
atom 9.6697449950386254 1.4774682651404845 6.2320367049129990 O
atom 4.3406601890386254 1.5808294687404845 6.3127026225129983 O
atom 1.7176761873613753 -0.0540590331404844 6.3870777338870015 O
atom 10.5516917068386249 0.0067353963404844 3.6192777622129984 O
atom 13.3163092248386246 1.6417143055404844 3.5934836614129986 O
atom 7.9881869308386246 1.4952638619404846 3.6717602038129984 O
atom -0.0332791468386248 -0.1088807163404844 11.4318226877870011 O
atom 8.8007363726386245 -0.0480862868595156 8.6640227161129992 O
atom 2.5186754851613751 1.4003305844595155 11.4080127485870015 O
atom 7.8467977791613768 1.5467810280595156 11.3297362061870022 O
atom 5.2238136723000004 -0.0881074728000000 11.4041111670500008 O
atom 3.4006221969613755 -0.0704022843404844 8.7952538058870022 O
atom 6.1652397149613751 1.5645766248595154 8.7694597050870033 O
atom 11.4943245209613742 1.4612154212595156 8.6887937874870023 O
