#=======================================================
#Created using the Atomic Simulation Environment (ASE)
#=======================================================
lattice_vector 10.2799937700000008 0.0365664000000000 -0.1103509400000000 
lattice_vector 5.1295446599999996 3.0257225200000000 -0.0379831100000000 
lattice_vector -0.1235224100000000 -0.0830058300000000 14.6701636600000000 
atom 11.9606240615916875 2.0303274748271476 2.9390030038756505 Ga
atom 8.4619047683386324 1.9697186085557803 11.5333819229056314 In
atom 5.1175883825242350 2.0128669676098458 1.7900565610985486 Al
atom 5.0249465750242353 1.9506125951098461 12.7926793060985489 Ga
atom 8.5391062745886313 2.0215972523057806 2.3645296354056318 Ga
atom 11.8834225553416886 1.9784488310771478 12.1078552913756514 Ga
atom 9.3804114303416881 0.5070904860771481 4.7917650163756500 In
atom 0.7725758545886315 0.4489498773057806 9.7737784904056308 Ga
atom 6.8051868753416871 2.0016685460771479 4.8279489313756505 Ga
atom 3.3373481845886315 1.9618111373057805 9.7547869354056314 In
atom 8.4927853696034070 1.9904700652257221 7.8658411546072688 Al
atom 11.9297434603269128 2.0095760181572060 6.6065437721740139 Al
atom 5.0712674787742351 1.9817397813598461 7.2913679335985488 In
atom 7.7082532387742360 0.5286646363598460 -0.0798978114014513 Al
atom 2.5682563537742351 0.5103814363598460 -0.0247223414014513 Ga
atom 10.2730255687742353 2.0415258963598459 -0.0988893664014513 Al
atom 7.7112244349034080 0.5680455703257222 3.6120694356072685 O
atom 2.4413447610269108 0.5082923658572065 10.9541617655740140 O
atom 11.9766819761269119 2.0411182335572060 1.0318815813740141 O
atom 8.4458468538034079 1.9589278498257221 13.4405033454072687 O
atom 2.5716456389034072 0.4294647975257223 3.6665572112072682 O
atom 7.5817597350269113 0.4062779930572065 10.8982986011740142 O
atom 10.1734058717034088 2.0203923799257222 3.5938375428072682 O
atom 10.2491229582269110 1.9796537034572064 10.8785473839740146 O
atom 5.1015305205196810 2.0020762399670713 3.6971778365187178 O
atom 5.0410045396196814 1.9614033832670712 10.8855580299187178 O
atom 4.2374434518034088 0.4494264126257222 1.1549732386072684 O
atom 5.9159619221269120 0.3863163779572065 13.4098825737740128 O
atom 9.3770222478034082 0.5880071854257223 1.1004854630072685 O
atom 11.0555407181269114 0.5248971507572066 13.3553947981740126 O
atom 6.9048066750034085 2.0228021230257220 1.1352220214072684 O
atom 13.5177221549269113 1.9772439603572063 13.3371629053740133 O
atom 4.2433856916196815 0.5281881304670712 8.5389075867187163 O
atom 5.9091835045196826 0.5481497455670713 6.0273236141187176 O
atom 8.5088432841386314 2.0012608239557803 5.9587197321056324 O
atom 11.9136855457916884 1.9987852594271478 8.5136651946756512 O
atom 9.3838006656196811 0.4261737576670712 8.4830444223187165 O
atom 0.7696047085196814 0.4095689727670712 6.0818113897187169 O
atom 6.7055671284196814 1.9805349400670709 8.5206756939187169 O
atom 3.4369679317196815 1.9829446831670710 6.0620601725187173 O
