#=======================================================
#Created using the Atomic Simulation Environment (ASE)
#=======================================================
lattice_vector 10.2056817100000004 0.0690311800000000 0.0042806000000000 
lattice_vector -2.5810322000000001 4.4014721799999998 -0.0090181800000000 
lattice_vector -0.0060088500000000 0.0244021900000000 13.7190194699999992 
atom -0.0008953186500000 0.0036359263100000 2.0441339010299999 Ga
atom 5.1019455363500006 0.0381515163100000 2.0462742010299997 In
atom -0.0038997436500000 0.0158370213100000 8.9036436360299991 Ga
atom 5.0989411113500003 0.0503526113100000 8.9057839360299997 Ga
atom -0.0051135313500000 0.0207662636900000 11.6748855689699997 Ga
atom 5.0977273236500000 0.0552818536900000 11.6770258689699986 Ga
atom -0.0021091063500000 0.0085651686900000 4.8153758339699992 Ga
atom 5.1007317486500003 0.0430807586900000 4.8175161339699990 In
atom 2.5386490284697802 1.5019362780081500 6.6155566262693695 Ga
atom 7.6414898834697800 1.5364518680081498 6.6176969262693701 Ga
atom 2.5356446034697799 1.5141373730081500 13.4750663612693700 Ga
atom 7.6384854584697806 1.5486529630081498 13.4772066612693688 Ga
atom 2.5404396657697799 1.4946644253881500 2.5272888242093696 Ga
atom 7.6432805207697800 1.5291800153881498 2.5294291242093698 Ga
atom 2.5374352407697800 1.5068655203881500 9.3867985592093692 Ga
atom 7.6402760957697806 1.5413811103881498 9.3889388592093699 Ga
atom -0.0246398607697800 2.9657255346118503 11.1848527657906303 Ga
atom 5.0782009942302198 3.0002411246118501 11.1869930657906291 Ga
atom -0.0216354357697800 2.9535244396118503 4.3253430307906298 Ga
atom 5.0812054192302201 2.9880400296118501 4.3274833307906295 Ga
atom -0.0228492234697800 2.9584536819918501 7.0965849637306295 Ga
atom 5.0799916315302198 2.9929692719918499 7.0987252637306293 Ga
atom -0.0198447984697800 2.9462525869918501 0.2370752287306300 Ga
atom 5.0829960565302201 2.9807681769918499 0.2392155287306300 Ga
atom 1.5701727708400002 0.0167313492200000 3.4304140798999998 O
atom 6.6730136258400004 0.0512469392200000 3.4325543799000000 O
atom 1.7435893767599999 3.0758040843399996 3.4249953745399999 O
atom 6.8464302317600012 3.1103196743399995 3.4271356745399997 O
atom -0.7964601301000001 1.3617539789399999 3.4269772680599999 O
atom 4.3063807249000003 1.3962695689400000 3.4291175680599997 O
atom 0.7722104282400001 1.3845858756600000 10.2871462154600000 O
atom 5.8750512832400013 1.4191014656599998 10.2892865154599988 O
atom -1.7905809199000000 3.0641203910599994 10.2830240219399993 O
atom 3.3122599351000002 3.0986359810599993 10.2851643219400000 O
atom 3.5266592341599998 0.0421864307800000 10.2907456900999996 O
atom 8.6295000891600004 0.0767020207800000 10.2928859901000003 O
atom 4.1097171179597805 1.5150317009181498 8.0018368051393693 O
atom 9.2125579729597789 1.5495472909181498 8.0039771051393700 O
atom 1.7613250688797799 0.1381166660381500 8.0032959797793701 O
atom 6.8641659238797805 0.1726322560381500 8.0054362797793690 O
atom 1.7430842170197798 2.8600543306381501 7.9983999932993690 O
atom 6.8459250720197806 2.8945699206381499 8.0005402932993697 O
atom 3.3177636253597806 2.8584840373581502 1.1395494706993701 O
atom 8.4206044803597795 2.8929996273581500 1.1416897706993701 O
atom 3.3360044772197797 0.1365463727581500 1.1444454571793701 O
atom 8.4388453322197794 0.1710619627581500 1.1465857571793701 O
atom 0.9693715762797800 1.4815690024781498 1.1410086453393700 O
atom 6.0722124312797803 1.5160845924781499 1.1431489453393699 O
atom 1.5464282287202196 2.9788209575218496 12.5711329446606292 O
atom 6.6492690837202213 3.0133365475218499 12.5732732446606299 O
atom -0.8019638203597801 1.6019059226418499 12.5725921193006300 O
atom 4.3008770346402194 1.6364215126418500 12.5747324193006289 O
atom -0.8202046722197799 4.3238435872418499 12.5676961328206289 O
atom 4.2826361827802195 4.3583591772418497 12.5698364328206296 O
atom 0.7544747361202198 4.3222732939618496 5.7088456102206298 O
atom 5.8573155911202210 4.3567888839618494 5.7109859102206295 O
atom 0.7727155879802200 1.6003356293618500 5.7137415967006300 O
atom 5.8755564429802201 1.6348512193618501 5.7158818967006297 O
atom -1.5939173129597801 2.9453582590818499 5.7103047848606296 O
atom 3.5089235420402196 2.9798738490818497 5.7124450848606294 O
