#=======================================================
#Created using the Atomic Simulation Environment (ASE)
#=======================================================
lattice_vector 5.5033958099999998 -0.0132577800000000 -0.0331689900000000 
lattice_vector 0.0223402200000000 9.3772105700000008 -0.0416834300000000 
lattice_vector 0.0607877800000000 0.0444800300000000 9.9990450499999994 
atom 0.9998077147499999 6.1678314124400009 -0.0333649461500000 In
atom 4.5563222052499999 3.2183613925600008 4.9580350511499995 In
atom 1.8005136997700000 1.4995835376800002 4.9822892972699995 In
atom 3.7556162202300003 7.8866092673200008 -0.0576191922700000 In
atom 3.8211735272500000 1.4981462638000000 7.8399833976900002 In
atom 1.7698485784700000 7.9135780784200005 2.8241385660099998 Ga
atom 4.5173912025499998 6.1627880224000000 2.8153071889899994 Ga
atom 1.0736309031700000 3.2489363198200003 7.8488147747100001 In
atom 1.7784401026000001 8.0068723486200000 6.9235130760399990 In
atom 3.8016402027199994 1.3968455881999999 1.9407807786600000 Ga
atom 1.0544550221600000 3.2976710133400005 1.9489452208000000 Ga
atom 4.5256252831600001 6.1060469234800010 6.9153486338999990 Ga
atom 0.9859676948999999 0.3235245600300000 9.9822231117299989 In
atom 4.6308284295399993 9.1070593149100016 4.9214939531699997 In
atom 1.8693008277400001 4.9877155541100002 4.9564191573700001 In
atom 3.7474952967000004 4.4428683208300006 9.9472979075299985 In
atom 4.6315442212099995 6.3020838385000015 8.8737639222699993 O
atom 0.9723648938700000 3.1190702700800008 3.9101555920299997 O
atom 3.7204436832300001 1.5933332677400001 3.9003238126899999 O
atom 1.8834654318500001 7.8278208408400003 8.8835957016100000 O
atom 2.9277193758500002 0.1054124995000000 6.2716104658299994 O
atom 2.6440937913899996 9.2922561532400021 1.2328132620699999 O
atom 5.3850237103499996 4.7658117684999999 1.2363201803299999 O
atom 0.1867894568900000 4.6318568842400003 6.2681035475700000 O
atom 5.4067374146599994 7.8454625229300001 6.3123448195699998 O
atom 0.1661699326200000 1.5530067703500003 1.3720617192300000 O
atom 2.9216656750199999 3.1405036772500003 1.3483910411300000 O
atom 2.6512416722599998 6.2579656160300008 6.3360154976700001 O
atom 0.1083816204700000 7.7601363583200005 1.1749147195899998 O
atom 5.4624589422900005 1.6368206139399999 6.1695242875099998 O
atom 2.7142014311699998 3.0875399317200003 6.1796895342899996 O
atom 2.8566391315900002 6.3094170405400005 1.1647494728099999 O
atom 2.0431659422899999 1.6278594443000003 8.6401128248100001 O
atom 3.5574606326699998 7.7908927426600005 3.6038582567899997 O
atom 0.8021882924700000 6.2971679414600006 3.6271121005899998 O
atom 4.7984382824899994 3.1215842455000007 8.6168589810099991 O
atom 4.6555702393800003 0.0383257334900000 8.9713695859299989 O
atom 0.9491899046200000 9.3834510955100008 3.9525365590699999 O
atom 3.6897623800599999 4.7069713416500010 3.9567104122100001 O
atom 1.9149977639400000 4.7148054873499996 8.9671957327899996 O
