#=======================================================
#Created using the Atomic Simulation Environment (ASE)
#=======================================================
lattice_vector 6.8227207800000000 0.0881812400000000 0.0125055600000000 
lattice_vector -3.4863746400000002 5.8645216299999996 0.0517163300000000 
lattice_vector -0.0429681600000000 -0.2540852000000000 24.8105752700000011 
atom -0.0107420400000000 -0.0635213000000000 6.2026438175000003 In
atom -0.0322261200000000 -0.1905639000000000 18.6079314525000008 In
atom 5.0687914200000002 2.9569207549999996 6.2410075425000002 In
atom 5.0473073400000006 2.8298781549999998 18.6462951775000008 In
atom 3.4006183500000002 -0.0194306800000000 6.2088965974999999 In
atom 3.3791342700000002 -0.1464732800000000 18.6141842325000013 Al
atom 1.6574310299999999 2.9128301349999997 6.2347547625000006 In
atom 1.6359469499999999 2.7857875349999999 18.6400423975000002 Al
atom 0.0000000000000000 0.0000000000000000 0.0000000000000000 Al
atom -0.0214840800000000 -0.1270426000000000 12.4052876350000005 In
atom 5.0795334600000004 3.0204420549999997 0.0383637250000000 In
atom 5.0580493800000008 2.8933994550000000 12.4436513600000005 In
atom 3.4113603900000000 0.0440906200000000 0.0062527800000000 Al
atom 3.3898763100000000 -0.0829519800000000 12.4115404150000010 In
atom 1.6681730699999999 2.9763514349999998 0.0321109450000000 In
atom 1.6466889899999999 2.8493088349999995 12.4373985800000000 In
atom -0.0303732695250002 1.9375798129249997 3.1206430131130003 In
atom -0.0518573495250002 1.8105372129249997 15.5259306481130004 In
atom -1.7735605895250002 4.8698406279249999 3.1465011781130001 In
atom -1.7950446695250002 4.7427980279249997 15.5517888131130011 In
atom 3.3809871204749995 1.9816704329249994 3.1268957931129999 In
atom 3.3595030404749995 1.8546278329249994 15.5321834281130009 Al
atom 1.6377998004749996 4.9139312479250004 3.1527539581130002 Al
atom 1.6163157204749996 4.7868886479250001 15.5580415931129998 In
atom 1.6770622595250000 0.9117290220749998 9.3167555668870001 In
atom 1.6555781795250000 0.7846864220749998 21.7220432018870007 In
atom -0.0661250604750002 3.8439898370749996 9.3426137318870008 Al
atom -0.0876091404750002 3.7169472370749994 21.7479013668869996 In
atom 5.0884226495249996 0.9558196420750000 9.3230083468870006 Al
atom 5.0669385695250000 0.8287770420750000 21.7282959818870012 Al
atom 3.3452353295249999 3.8880804570749996 9.3488665118869996 In
atom 3.3237512495249999 3.7610378570749994 21.7541541468870001 In
atom -0.0338945102370002 1.9167575307849998 5.1538696564895004 O
atom -0.0553785902370002 1.7897149307849998 17.5591572914894982 O
atom -1.7770818302370002 4.8490183457849998 5.1797278214895002 O
atom -1.7985659102370002 4.7219757457849996 17.5850154564895007 O
atom 3.3774658797629997 1.9608481507849995 5.1601224364895000 O
atom 3.3559817997629997 1.8338055507849995 17.5654100714894987 O
atom 1.6342785597629996 4.8931089657850002 5.1859806014894998 O
atom 1.6127944797629996 4.7660663657850000 17.5912682364895012 O
atom 1.6805835002370000 0.9325513042149998 7.2835289235104996 O
atom 1.6590994202370000 0.8055087042149998 19.6888165585105028 O
atom -0.0626038197630002 3.8648121192149998 7.3093870885104995 O
atom -0.0840878997630002 3.7377695192149996 19.7146747235105018 O
atom 5.0919438902370002 0.9766419242150000 7.2897817035105001 O
atom 5.0704598102369998 0.8495993242150000 19.6950693385105033 O
atom 3.3487565702369997 3.9089027392149998 7.3156398685105000 O
atom 3.3272724902369997 3.7818601392149995 19.7209275035105023 O
atom 1.6735410188130000 0.8909067399349998 11.3499822102635015 O
atom 1.6520569388130000 0.7638641399349998 23.7552698452634985 O
atom -0.0696463011870002 3.8231675549349995 11.3758403752635004 O
atom -0.0911303811870002 3.6961249549349997 23.7811280102635010 O
atom 5.0849014088129998 0.9349973599350000 11.3562349902635003 O
atom 5.0634173288130002 0.8079547599350000 23.7615226252634990 O
atom 3.3417140888129997 3.8672581749349995 11.3820931552635010 O
atom 3.3202300088129997 3.7402155749349997 23.7873807902635015 O
atom -0.0268520288130002 1.9584020950649998 1.0874163697365000 O
atom -0.0483361088130002 1.8313594950649998 13.4927040047365008 O
atom -1.7700393488130002 4.8906629100650001 1.1132745347365001 O
atom -1.7915234288130002 4.7636203100649999 13.5185621697365015 O
atom 3.3845083611869997 2.0024927150649994 1.0936691497365001 O
atom 3.3630242811869997 1.8754501150649996 13.4989567847365013 O
atom 1.6413210411869996 4.9347535300650005 1.1195273147364999 O
atom 1.6198369611869996 4.8077109300650003 13.5248149497365020 O
atom -0.0053710200000000 -0.0317606500000000 3.1013219087500001 O
atom -0.0268551000000000 -0.1588032500000000 15.5066095437500007 O
atom 5.0741624400000003 2.9886814049999999 3.1396856337500001 O
atom 5.0526783600000007 2.8616388049999997 15.5449732687500006 O
atom 3.4059893699999999 0.0123299700000000 3.1075746887500002 O
atom 3.3845052899999999 -0.1147126300000000 15.5128623237500012 O
atom 1.6628020500000000 2.9445907849999999 3.1334328537500000 O
atom 1.6413179700000000 2.8175481849999997 15.5387204887500001 O
atom -0.0161130600000000 -0.0952819500000000 9.3039657262500004 O
atom -0.0375971400000000 -0.2223245500000000 21.7092533612499992 O
atom 5.0634204000000000 2.9251601049999998 9.3423294512500004 O
atom 5.0419363200000005 2.7981175049999996 21.7476170862500027 O
atom 3.3952473300000001 -0.0511913300000000 9.3102185062500009 O
atom 3.3737632500000001 -0.1782339300000000 21.7155061412499997 O
atom 1.6520600100000000 2.8810694849999998 9.3360766712499998 O
atom 1.6305759300000000 2.7540268849999996 21.7413643062500022 O
