#=======================================================
#Created using the Atomic Simulation Environment (ASE)
#=======================================================
lattice_vector 10.9100490200000007 -0.0137464600000000 -0.0574466200000000 
lattice_vector 0.0114361500000000 9.2913505799999996 -0.0383767400000000 
lattice_vector 0.0525830400000000 0.0405724800000000 9.9182473899999994 
atom 1.7483501896500000 7.9330739143799995 6.8713981523699994 In
atom 7.2033746996500003 7.9262006843799995 6.8426748423699992 Al
atom 3.7651197081099999 1.3876752327399999 1.9284149642899999 In
atom 9.2201442181100006 1.3808020027399999 1.8996916542900000 Al
atom 1.0399175554100002 3.2679646648999996 1.9350245178100001 In
atom 6.4949420654100001 3.2610914348999995 1.9063012078099999 In
atom 4.4735523423500005 6.0527844822199999 6.8647885988499988 In
atom 9.9285768523500000 6.0459112522199998 6.8360652888499995 In
atom 0.9839743739900000 6.1124783734700001 -0.0303933674100000 Al
atom 6.4389988839900010 6.1056051434700001 -0.0591166774100000 In
atom 4.5087778060099994 3.1922852165300002 4.9224170124099995 In
atom 9.9638023160099998 3.1854119865300001 4.8936937024099993 In
atom 1.7791612994100001 1.4861133248099998 4.9438399875699996 In
atom 7.2341858094100004 1.4792400948099997 4.9151166775699995 In
atom 3.7661739205900004 7.8592227451899985 9.8664310474299999 In
atom 9.2211984305900021 7.8523495151899985 9.8377077374299997 Al
atom 0.9693176591400001 0.3181177222800000 9.9023523243299998 In
atom 6.4243421691399991 0.3112444922800000 9.8736290143299996 In
atom 4.5759123947799996 9.0271372027599988 4.8880822158899999 In
atom 10.0309369047800025 9.0202639727599987 4.8593589058899997 In
atom 1.8433682337800001 4.9423795625600002 4.9193296364899997 In
atom 7.2983927437800000 4.9355063325600002 4.8906063264899995 In
atom 3.7018618201400004 4.4028753624799997 9.8711049037300000 Al
atom 9.1568863301399990 4.3960021324799996 9.8423815937299999 In
atom 3.7798701173800002 1.4859644202700000 7.7799600803999995 In
atom 9.2348946273800010 1.4790911902700001 7.7512367704000003 In
atom 1.7430647275800000 7.8420877732499994 2.8051375664599996 In
atom 7.1980892375799996 7.8352145432499993 2.7764142564599994 Al
atom 4.4684498586799997 6.1104599503699992 2.7979139850999997 Al
atom 9.9234743686800009 6.1035867203699992 2.7691906750999995 In
atom 1.0544849862800001 3.2175922431499999 7.7871836617600003 Al
atom 6.5095094962800006 3.2107190131499999 7.7584603517600002 Al
atom 4.5768227578599996 6.2464468549899994 8.8075092562199995 O
atom 10.0318472678600017 6.2395736249899993 8.7787859462199993 O
atom 0.9572596915800001 3.0902067042899999 3.8802568373200002 O
atom 6.4122842015800003 3.0833334742899998 3.8515335273200000 O
atom 3.6829192902800010 1.5815712953300001 3.8721122142000000 O
atom 9.1379438002800004 1.5746980653300000 3.8433889041999998 O
atom 1.8511631591600002 7.7550822639499994 8.8156538793399992 O
atom 7.3061876691599998 7.7482090339499994 8.7869305693399991 O
atom 2.8970655252599999 0.1055337993900000 6.2231524798999995 O
atom 8.3520900352599980 0.0986605693900000 6.1944291698999994 O
atom 2.6092530790600001 9.2096974904499991 1.2277789917199999 O
atom 8.0642775890600014 9.2028242604499990 1.1990556817200000 O
atom 5.3312531097600004 4.7278298958900002 1.2319149253999999 O
atom 10.7862776197600017 4.7209566658900002 1.2031916154000000 O
atom 0.1750654945600000 4.5874013939499987 6.2190165462199998 O
atom 5.6300900045599995 4.5805281639499986 6.1902932362199996 O
atom 0.0976456115400000 7.6887531012899988 1.1679395205599998 O
atom 5.5526701215400003 7.6818798712899987 1.1392162105599999 O
atom 5.4078316641399997 1.6258290288699999 6.1242999928199993 O
atom 10.8628561741400009 1.6189557988699999 6.0955766828200000 O
atom 2.6820805762399997 3.0601336331900000 6.1327516298599996 O
atom 8.1371050862400001 3.0532604031899999 6.1040283198599994 O
atom 2.8233966994399999 6.2544484969699994 1.1594878835200000 O
atom 8.2784212094399994 6.2475752669699993 1.1307645735199998 O
atom 5.3453809884899997 7.7774821969799994 6.2678781996000001 O
atom 10.8004054984900009 7.7706089669799994 6.2391548896000000 O
atom 0.1618841105500000 1.5384793975000002 1.3615817250400000 O
atom 5.6169086205500003 1.5316061675000001 1.3328584150400000 O
atom 2.8913405110500006 3.1145723810999999 1.3406960242400001 O
atom 8.3463650210500013 3.1076991511000003 1.3119727142399999 O
atom 2.6159245879900004 6.2013892133800006 6.2887639003999993 O
atom 8.0709490979900007 6.1945159833800005 6.2600405904000000 O
atom 2.0167449062500000 1.6121841302500000 8.5723090790299992 O
atom 7.4717694162500008 1.6053109002499999 8.5435857690299990 O
atom 3.5144980590300001 7.7222785151099993 3.5798716554499999 O
atom 8.9695225690300013 7.7154052851099992 3.5511483454499997 O
atom 0.7851560200300001 6.2390990373100008 3.6003735888499997 O
atom 6.2401805300300008 6.2322258073100008 3.5716502788499995 O
atom 4.7460869452500010 3.0953636080500000 8.5518071456299989 O
atom 10.2011114552499986 3.0884903780499999 8.5230838356299987 O
atom 4.6077366625100007 0.0400605623000000 8.9023715870999993 O
atom 10.0627611725100010 0.0331873323000000 8.8736482770999991 O
atom 0.9270819494900000 9.2971610117000001 3.9242499699000000 O
atom 6.3821064594900001 9.2902877817000000 3.8955266598999998 O
atom 3.6488990017900007 4.6666318078600000 3.9289999314199999 O
atom 9.1039235117899988 4.6597585778599999 3.9002766214200002 O
atom 1.8859196102100002 4.6705897661400000 8.8976216255799994 O
atom 7.3409441202100005 4.6637165361399999 8.8688983155799992 O
