#=======================================================
#Created using the Atomic Simulation Environment (ASE)
#=======================================================
lattice_vector 9.9976853499999994 -0.0363919200000000 -0.0319639900000000 
lattice_vector 0.0310167100000000 8.5800351300000006 -0.0106808000000000 
lattice_vector 0.0291453700000000 0.0106861400000000 9.2092688599999999 
atom 1.6063484576999998 7.3033809956900004 6.4047846521799991 Al
atom 6.6051911326999999 7.2851850356900005 6.3888026571799994 Al
atom 3.4495668880799992 1.2680115834700001 1.8016389136600000 Ga
atom 8.4484095630800002 1.2498156234700000 1.7856569186600000 In
atom 0.9564109260000000 3.0102766597300001 1.8074723895600000 Al
atom 5.9552536009999990 2.9920806997300002 1.7914903945600000 In
atom 4.0995044197799997 5.5611159194300006 6.3989511762799998 Al
atom 9.0983470947799994 5.5429199594300007 6.3829691812799991 Al
atom 0.9152018340049999 5.6424060387000008 -0.0098887435050000 Al
atom 5.9140445090050004 5.6242100787000009 -0.0258707385050000 Al
atom 4.1292302359949993 2.9247762013000003 4.5878603785049998 Al
atom 9.1280729109949998 2.9065802413000004 4.5718783835050001 Al
atom 1.6241018238550000 1.3551477173799999 4.5978166432050003 Ga
atom 6.6229444988549995 1.3369517573799998 4.5818346482049996 Al
atom 3.4494756161450004 7.2227206626200005 9.1894238517950004 Ga
atom 8.4483182911450001 7.2045247026200006 9.1734418567949998 Al
atom 0.8698522953300000 0.2650195864800000 9.1970541919799995 In
atom 5.8686949703299991 0.2468236264800000 9.1810721969800007 Al
atom 4.2036668539299997 8.3128274212400015 4.5717677652999997 Al
atom 9.2025095289300012 8.2946314612400016 4.5557857703000000 Al
atom 1.6905981640299999 4.5467099440400007 4.5844583148000000 Al
atom 6.6894408390299995 4.5285139840400008 4.5684763198000002 Al
atom 3.3829209852300002 4.0311370636800001 9.1843636424799993 Ga
atom 8.3817636602299999 4.0129411036800002 9.1683816474800004 Al
atom 3.4520142620350001 1.3430112749900003 7.2350700406450006 Al
atom 8.4508569370349989 1.3248153149900002 7.2190880456450000 Al
atom 1.6091472503449999 7.2303048093700006 2.6290219199949996 Al
atom 6.6079899253449996 7.2121088493700007 2.6130399249949998 Al
atom 4.1027994797850003 5.6253202951900017 2.6230175512949998 Al
atom 9.1016421547849991 5.6071243351900018 2.6070355562949996 Al
atom 0.9583620325949999 2.9479957891700006 7.2410744093449999 Ga
atom 5.9572047075949994 2.9297998291700003 7.2250924143450002 Al
atom 4.1908175719749998 5.7345017741500008 8.2034825629250001 O
atom 9.1896602469749986 5.7163058141500009 8.1875005679249995 O
atom 0.8765227588450000 2.8410797718900005 3.6129743960350003 O
atom 5.8753654338449994 2.8228838118900006 3.5969924010350001 O
atom 3.3709193893250005 1.4420161008300001 3.6067136881350002 O
atom 8.3697620643249984 1.4238201408300000 3.5907316931350000 O
atom 1.6964209414950000 7.1335654452100004 8.2097432708249993 O
atom 6.6952636164949988 7.1153694852100005 8.1937612758250005 O
atom 2.6430039924949997 0.0743890192300000 5.7841434383649997 O
atom 7.6418466674949990 0.0561930592300000 5.7681614433649999 O
atom 2.4089475829649998 8.4955502448899995 1.1698195625150001 O
atom 7.4077902579649999 8.4773542848899996 1.1538375675150001 O
atom 4.8934188662449989 4.3508753322300002 1.1669767106150000 O
atom 9.8922615412449986 4.3326793722300003 1.1509947156150000 O
atom 0.1585327092150000 4.2190639318900001 5.7869862902650002 O
atom 5.1573753842149985 4.2008679718900002 5.7710042952649996 O
atom 0.1041600490650000 7.0967091360499994 1.1052487805350000 O
atom 5.1030027240649991 7.0785131760499995 1.0892667855350000 O
atom 4.9473252004749995 1.4730591498299999 5.7013659185850001 O
atom 9.9461678754750000 1.4548631898300000 5.6853839235850003 O
atom 2.4526804363149997 2.8034825398500001 5.7077120728850002 O
atom 7.4515231113150007 2.7852865798500002 5.6917300778849995 O
atom 2.5988048132249997 5.7662857460300003 1.0989026262349999 O
atom 7.5976474882249985 5.7480897860300004 1.0829206312349999 O
atom 4.9033687790100000 7.1534606177500004 5.8510605655400001 O
atom 9.9022114540099988 7.1352646577500005 5.8350785705400003 O
atom 0.1491074131100000 1.4166709968900002 1.2686692748200001 O
atom 5.1479500881099991 1.3984750368900001 1.2526872798200002 O
atom 2.6538015913100002 2.8661789889900007 1.2588625413200001 O
atom 7.6526442663099994 2.8479830289900008 1.2428805463200001 O
atom 2.3986746008099997 5.7039526256500004 5.8608672990399997 O
atom 7.3975172758099994 5.6857566656500005 5.8448853040400000 O
atom 1.8350949367949998 1.4612914277800002 7.9676415965649996 O
atom 6.8339376117949993 1.4430954677800001 7.9516596015649998 O
atom 3.2306715440449998 7.1137130666999999 3.3515148439550000 O
atom 8.2295142190449990 7.0955171067000000 3.3355328489549998 O
atom 0.7262875329450000 5.7500054259000013 3.3612147694550001 O
atom 5.7251302079449991 5.7318094659000014 3.3452327744549999 O
atom 4.3394789478949995 2.8249990685800004 7.9579416710649999 O
atom 9.3383216228949983 2.8068031085800005 7.9419596760650002 O
atom 4.2052943260099998 0.0029857385700000 8.2749703453799999 O
atom 9.2041370010100003 -0.0152102214300000 8.2589883503799992 O
atom 0.8624540399899999 8.5727454134299990 3.6704163776200001 O
atom 5.8612967149899999 8.5545494534299991 3.6544343826200003 O
atom 3.3464290559099998 4.2907899386899997 3.6677444185200003 O
atom 8.3452717309099995 4.2725939786899998 3.6517624235200001 O
atom 1.7213193100899999 4.2849412133100016 8.2776423044800005 O
atom 6.7201619850899998 4.2667452533100008 8.2616603094799999 O
