#=======================================================
#Created using the Atomic Simulation Environment (ASE)
#=======================================================
lattice_vector 9.5582881499999992 0.0181424000000000 -0.0224573500000000 
lattice_vector -0.0172038800000000 9.5582511900000000 0.0167545700000000 
lattice_vector 0.0218286400000000 -0.0174595600000000 9.5579193500000006 
atom 7.1807866224999994 2.3900749274999997 7.1557851425000001 Ga
atom 2.3930406074999997 7.1601293224999996 7.1753911025000008 Al
atom 7.1612703624999989 7.1779303025000001 2.3852027525000001 In
atom 7.1721846824999993 7.1692005224999997 7.1641624275000009 In
atom 2.3821262874999998 7.1688591024999999 2.3964314275000000 Al
atom 7.1698723024999991 2.3988047074999996 2.3768254675000002 In
atom 2.4016425474999998 2.3810037275000000 7.1670138175000009 Ga
atom 2.3907282274999999 2.3897335074999999 2.3880541425000001 Ga
atom 7.1716134244199994 4.4590220745400000 4.7699242921200007 Ga
atom 2.3729530894199997 9.2378062495400002 0.0105705771200000 Al
atom 7.1595292405799995 5.1177129354600002 -0.0078960721200000 Ga
atom 4.7764133112399998 7.1696234375400003 4.4553276696000008 Ga
atom 0.0167854962400000 2.3726968625399998 9.2371387346000002 Ga
atom -0.0012464162400000 7.1593649874600001 5.1164948604000005 Ga
atom 4.4619318179000000 4.7744852833999998 7.1663516724000003 Ga
atom 9.2387635129000003 0.0131606684000000 2.3677860374000002 Ga
atom 5.1204973521000001 -0.0034066284000000 7.1564472876000007 In
atom 2.3912994855799998 5.0999119554599996 4.7822922778799999 Ga
atom 7.1681311805799997 0.3385873404600000 -0.0162733571200000 In
atom 2.3815550294199999 4.4586806545400002 0.0021932921200000 Ga
atom 4.7864995987599999 2.3893105924600002 5.0968889004000006 Ga
atom -0.0121607362400000 7.1680947674600004 0.3375351854000000 Ga
atom 0.0058711762400000 2.3814266425400001 4.4581790596000008 Ga
atom 5.1009810920999996 4.7844487465999999 2.3858648976000003 Ga
atom 0.3413532771000000 -0.0124778284000000 7.1676759626000006 Ga
atom 4.4596194378999998 0.0040894684000000 2.3790147124000001 Ga
atom 2.3999014255799995 0.3207863604600000 4.7739149928800000 Ga
atom 4.7755852787599995 2.3980403724600001 0.3179292254000001 Ga
atom 0.3218370171000000 4.7753775466000006 2.3970935726000002 Ga
atom 7.1630114844200001 9.2381476695400000 4.7783015771200006 In
atom 4.7873276312399993 7.1608936575400000 9.2342873446000002 In
atom 9.2410758928999996 4.7835564833999999 7.1551229974000004 Ga
atom 5.9337315237599997 3.7370710319300002 6.2626225734700007 O
atom 3.6352442120799999 8.5085600536499992 8.0732784602700001 O
atom 8.4042216769200007 5.8342165953499991 1.4814764837300001 O
atom 5.9340848622399998 5.8174873940699996 8.0631639075300008 O
atom 6.2681056190399991 5.9311904642399993 3.7328022776500003 O
atom 8.0801070424399981 3.6318911698399998 8.5035188740500001 O
atom 1.4892471787599999 8.4034583895599990 5.8320135591500000 O
atom 8.0698224347599989 5.9307950513599996 5.8122067141500002 O
atom 3.7395386781699997 6.2664815318400011 5.9281201710700007 O
atom 8.5102095501299981 8.0766942499599992 3.6261407112300001 O
atom 5.8375228812699991 1.4867714944400001 8.3999062147700005 O
atom 5.8200111654299995 8.0673877987600005 5.9263743279300005 O
atom 3.6291813862400000 5.8218629980699994 3.2895939965299998 O
atom 5.9276686979199997 1.0503739763500000 1.4789381097300001 O
atom 1.1586912330799999 3.7247174346500000 8.0707400862699998 O
atom 3.6288280477599999 3.7414466359300000 1.4890526624700000 O
atom 3.2948072909599992 3.6277435657599999 5.8194142923500003 O
atom 1.4828058675600000 5.9270428601600003 1.0486976959500001 O
atom 8.0736657312399984 1.1554756404400000 3.7202030108500002 O
atom 1.4930904752400000 3.6281389786400000 3.7400098558500003 O
atom 5.8233742318299990 3.2924524981599999 3.6240963989300004 O
atom 1.0527033598700000 1.4822397800400000 5.9260758587700000 O
atom 3.7253900287299997 8.0721625355600004 1.1523103552300000 O
atom 3.7429017445700001 1.4915462312400001 3.6258422420700001 O
atom 1.1350711887600000 8.5158552069300004 1.5032688584700000 O
atom 8.4120759070800002 3.7472354386500002 3.2747128252700000 O
atom 3.6445938619200002 1.0372900203499997 6.2632875487300010 O
atom 1.1526284072399999 1.0380203790700000 3.2870556225300001 O
atom 1.5084778040400000 1.1342638892400001 8.5146133426500015 O
atom 3.2814467074399993 8.4106753448399996 3.7441651590500005 O
atom 6.2660788737599997 3.6421337745600000 1.0334479241500001 O
atom 3.2883659797599991 1.1513280363600000 1.0360984291500002 O
atom 8.5163703731699982 1.5051569168400001 1.1295545360700001 O
atom 3.7505817351299999 3.2797676749600000 8.4079517762300000 O
atom 1.0388625462700001 6.2655556694400003 3.6405524997700001 O
atom 1.0385547104300001 3.2879207837600002 1.1502660429300000 O
atom 8.4278417212399983 1.0430788230699999 8.0489477115299994 O
atom 1.1508370029199999 5.8116985913499990 6.2775037447300006 O
atom 5.9183190480799990 8.5216440096500019 3.2889290212700000 O
atom 8.4102845027599997 8.5209136509300016 6.2651609474700010 O
atom 8.0544351059599979 8.4246701407600000 1.0376032273500000 O
atom 6.2814662025599990 1.1482586851600001 5.8080514109500001 O
atom 3.2968340362399995 5.9168002554400001 8.5187686458500007 O
atom 6.2745469302399997 8.4076059936400007 8.5161181408500006 O
atom 1.0465425368299999 8.0537771131600007 8.4226620339300009 O
atom 5.8123311748699988 6.2791663550400001 1.1442647937700001 O
atom 8.5240503637299980 3.2933783605600002 5.9116640702300005 O
atom 8.5243581995699991 6.2710132462399999 8.4019505270700012 O
