#=======================================================
#Created using the Atomic Simulation Environment (ASE)
#=======================================================
lattice_vector 9.9632033999999994 -0.0211105900000000 -0.1115442500000000 
lattice_vector 4.9878851199999996 2.9402968100000000 -0.0447258100000000 
lattice_vector -0.2207031800000000 -0.0536447800000000 14.3245609500000004 
atom 8.0911622533583323 -0.0690017389174821 13.6347506547066111 Ga
atom 4.9816016999999997 -0.0105552950000000 -0.0557721250000000 Al
atom 9.0992943291416672 1.4471338814174821 2.2907011340433887 Ga
atom 4.1176926291416667 1.4576891764174820 2.3464732590433890 Ga
atom 4.8988380074999993 -0.0306720875000000 5.3159382312500005 Ga
atom 1.5961621716416672 -0.0191648260825179 4.1594062827933893 Ga
atom -0.1103515900000000 -0.0268223900000000 7.1622804750000002 Ga
atom 8.2291017408583329 -0.0354737514174821 4.6819000609566110 Ga
atom 2.3835909699999998 1.4433260150000000 7.1399175700000006 Al
atom 7.3651926699999999 1.4327707199999999 7.0841454449999999 Al
atom 8.1463380483583325 -0.0555905439174821 10.0536104172066114 Ga
atom 4.8436622125000000 -0.0440832825000000 8.8970784687500011 Al
atom 3.1371484508583323 -0.0517408464174821 11.8999526609566111 Ga
atom 1.5133984791416673 -0.0392816185825179 9.5311166390433897 Ga
atom 5.6310910108583325 1.4184075585825178 11.8775897559566115 Ga
atom 10.6126927108583331 1.4078522635825177 11.8218176309566108 Ga
atom 3.3687293857000000 -0.0117374069000000 1.1796626357500002 O
atom 1.4593262000416674 -0.0524245896825179 13.0406340717933897 O
atom 5.7629142433000000 1.3996050619000000 1.1581942469500002 O
atom 10.7447672800999978 1.5070838511000000 1.1028639745500002 O
atom 8.2831740199583326 -0.0223307803174821 1.1723826282066110 O
atom 6.3737708343000001 -0.0630179631000000 13.0333540642500001 O
atom 8.9674710967000006 1.4659363780999999 13.0100966430500016 O
atom 3.9856180598999993 1.3584575888999999 13.0654269154500007 O
atom 6.6162294265583315 -0.0366558633174821 5.9173348217066115 O
atom 4.9275294209000000 -0.0236982661000000 3.4537453077500002 O
atom 9.0104142841583315 1.3746866054825180 5.8958664329066108 O
atom 4.0290639209583325 1.5032759846825179 5.9520804105066114 O
atom 1.5674707582416674 -0.0261386474825179 6.0215992062933896 O
atom 9.8419740551583317 -0.0342916395174821 3.4464653002066110 O
atom 12.4356743175583322 1.4946627016825178 3.4232078790066112 O
atom 7.4538212807583317 1.3871839124825178 3.4785381514066112 O
atom -0.0994738351583326 -0.0404637304825179 10.7665513997933893 O
atom 8.1750294617583315 -0.0486167225174821 8.1914174937066111 O
atom 2.2947110224416671 1.3708787383174821 10.7450830109933886 O
atom 7.2765640592416672 1.4783575275174818 10.6897527385933895 O
atom 4.8149707990999993 -0.0510571039000000 10.7592713922499996 O
atom 3.1262707934416674 -0.0380995066825179 8.2956818782933901 O
atom 5.7199710558416674 1.4908548345174821 8.2724244570933898 O
atom 10.7013214190416655 1.3622654553174822 8.2162104794933892 O
