#=======================================================
#Created using the Atomic Simulation Environment (ASE)
#=======================================================
lattice_vector 3.0289919099999998 0.2146248400000000 0.0491720600000000 
lattice_vector -1.7008773399999999 2.5157314899999998 -0.0051408200000000 
lattice_vector -0.1827752300000000 -0.1007496400000000 11.6717624699999991 
atom -0.0913876150000000 -0.0503748200000000 5.8358812349999996 Al
atom 0.0000000000000000 0.0000000000000000 0.0000000000000000 Al
atom -1.0275975903282701 1.4271255866627697 2.9149728605159253 Al
atom 0.8863153366038342 0.7581245632570762 8.7769235587872458 Al
atom -0.0456938075000000 -0.0251874100000000 2.9179406174999998 O
atom -0.1370814225000000 -0.0755622300000000 8.7538218524999998 O
atom -1.0575544505252701 1.4106127206667698 4.8279747293489246 O
atom 0.9162721968008342 0.7746374292530762 6.8639216899542452 O
atom 0.8563584764068342 0.7416116972610761 10.6899254276202456 O
atom -0.9976407301312702 1.4436384526587698 1.0019709916829254 O
