#=======================================================
#Created using the Atomic Simulation Environment (ASE)
#=======================================================
lattice_vector 9.9417982800000004 0.0406527900000000 -0.0975023300000000 
lattice_vector 4.9589977100000002 2.9218397399999998 -0.0448089800000000 
lattice_vector -0.0572879600000000 -0.0194498900000000 14.1664617899999996 
atom 8.2299309053849665 0.0152378470126570 13.4949405601868015 Al
atom 6.6183175596150345 0.0238602117373430 2.2960754585631982 Al
atom 4.9708991400000002 0.0203263950000000 -0.0487511650000000 Al
atom 9.0978164146150355 1.4847800817373429 2.2736709685631982 Al
atom 4.1269172746150344 1.4644536867373428 2.3224221335631978 Al
atom 4.9494161550000006 0.0130326862500000 5.2636720062500002 Al
atom 1.6402574246150343 0.0011025804873430 4.1156343473131987 Ga
atom 8.2657358803849661 0.0273940282626570 4.6409019414368018 Al
atom 2.4508548750000001 1.4511949249999998 7.0608264050000002 In
atom 7.4217540150000003 1.4715213199999999 7.0120752399999997 Al
atom 8.2442528953849656 0.0201003195126570 9.9533251126868016 Al
atom 4.9350941650000006 0.0081702137500000 8.8052874537499992 Al
atom 3.2661927603849654 -0.0026573117373430 11.7728840014368004 Al
atom 1.6187744396150343 -0.0061911282626570 9.4280575185631985 Al
atom 5.7456916153849660 1.4582625582626569 11.7504795114368008 Al
atom 10.7165907553849671 1.4785889532626570 11.7017283464368020 In
atom 3.3753419386000001 0.0121687079500000 1.1709984599500001 O
atom 1.6047388894150343 -0.0109563513126570 12.8988406571131975 O
atom 5.7556608394000008 1.4146517831499998 1.1494901495500001 O
atom 10.7260839222000008 1.5510387119499998 1.1008966719500000 O
atom 8.2797714305849652 0.0321592513126570 1.1701188028868017 O
atom 6.5091683814000003 0.0090341920500000 12.8979610000499996 O
atom 9.0878471906000016 1.5283908568500000 12.8746603304500002 O
atom 4.1174241077999998 1.3920039280500001 12.9232538080500010 O
atom 6.6701786789849651 0.0192363412126570 5.8606515663868013 O
atom 4.9568635898000002 0.0155611719500000 3.4220319735499998 O
atom 9.0504975797849649 1.4217194164126570 5.8391432559868015 O
atom 4.0791223825849654 1.5174535552126569 5.8880521083868018 O
atom 1.6328099898150343 -0.0014259052126570 5.9572743800131986 O
atom 9.8612930817849662 0.0355517153126570 3.4211523164868014 O
atom 12.4399718909849657 1.5549083801126569 3.3978516468868016 O
atom 7.4695488081849657 1.4185214513126569 3.4464451244868015 O
atom 0.0232172382150344 -0.0143488153126570 10.6478071435131980 O
atom 8.2517003301849652 0.0226288052126570 8.1116850799868008 O
atom 2.4035361390150345 1.3881342598873430 10.6262988331131982 O
atom 7.3739592218150349 1.5245211886873429 10.5777053555131975 O
atom 4.9276467302000002 0.0056417280500000 10.6469274864500001 O
atom 3.2143316410150344 0.0019665587873430 8.2083078936131990 O
atom 5.7930104502150348 1.5213232235873428 8.1850072240131979 O
atom 10.7643856474150343 1.4255890847873429 8.1360983716131994 O
