#=======================================================
#Created using the Atomic Simulation Environment (ASE)
#=======================================================
lattice_vector 9.7638384100000000 0.0116612600000000 -0.0142038500000000 
lattice_vector -0.0108411600000000 9.7638663200000000 0.0136449200000000 
lattice_vector 0.0136869900000000 -0.0142464300000000 9.7636170599999996 
atom 7.3304337600000009 2.4390277024999998 7.3154711374999994 In
atom 2.4430939750000000 7.3151302325000005 7.3293955224999996 In
atom 7.3181696850000009 7.3280840775000007 2.4404850675000000 Ga
atom 7.3250131800000009 7.3209608625000007 7.3222935974999999 Ga
atom 2.4362504800000000 7.3222534475000005 2.4475869924999998 In
atom 7.3235902650000009 2.4461509174999998 2.4336626075000001 In
atom 2.4485145550000000 2.4331970725000001 7.3225730625000001 Ga
atom 2.4416710600000000 2.4403202875000001 2.4407645324999998 Ga
atom 7.3246703219400002 4.5515844351200005 4.8775141752200000 In
atom 2.4304870419400002 9.4348101801199995 0.0096300302200000 In
atom 7.3170896280600006 5.2226505598800008 -0.0033665002200000 Ga
atom 4.8801664723400000 7.3220915336200010 4.5529773149599997 Ga
atom 0.0105113423400000 2.4272045286199999 9.4350653099599988 Ga
atom -0.0008220173400000 7.3152921463800000 5.2240052000399997 In
atom 4.5547933615600007 4.8766824846599999 7.3229162608999996 Ga
atom 9.4352896515599980 0.0077031696600000 2.4271833459000001 In
atom 5.2241549534400002 -0.0044577096600000 7.3151279390999999 Ga
atom 2.4420139180600002 5.2096967148800006 4.8855439547800001 In
atom 7.3225102080600006 0.3407173998800000 -0.0101889602200000 In
atom 2.4359076219400002 4.5528770201200004 0.0028075702200000 Ga
atom 4.8865177676600000 2.4391896163800002 5.2100808150400004 Ga
atom -0.0076655123400000 7.3224153613800000 0.3421966700400000 Ga
atom 0.0036678473400000 2.4343277436199999 4.5532567799599999 In
atom 5.2118908784400002 4.8845986653400004 2.4401418691000001 Ga
atom 0.3422357484400000 -0.0102883396600000 7.3222298640999997 In
atom 4.5533704465600007 0.0018725396600000 2.4342852708999998 Ga
atom 2.4474344980600002 0.3277635548800000 4.8787214947799997 Ga
atom 4.8796742726600009 2.4463128313800002 0.3282722850400000 Ga
atom 0.3299716734400001 4.8787680353400003 2.4472437940999998 Ga
atom 7.3192497419400002 9.4335175951199997 4.8843366352199995 Ga
atom 4.8870099673400000 7.3149683186200010 9.4347858449599986 Ga
atom 9.4367125665599989 4.8825131146600000 7.3158143358999999 In
atom 6.0583195860799997 3.8155560542400004 6.4014615680800002 O
atom 3.7121509418000000 8.6920121830000010 8.2472529593599990 O
atom 8.5877107048000010 5.9542340546000005 1.5189346296399999 O
atom 6.0585293673200002 5.9414005831600001 8.2399961679199993 O
atom 6.4037080908500004 6.0556765508300003 3.8167163952599998 O
atom 8.2487550853299982 3.7074177359100000 8.6925798206600007 O
atom 1.5219539480700002 8.5853454422900004 5.9558345185399997 O
atom 8.2422934757500013 6.0547631459699991 5.9425145905399992 O
atom 3.8190349511499999 6.4008230719799997 6.0568399393699996 O
atom 8.6956311404700006 8.2456797133399995 3.7090351649300000 O
atom 5.9565309219299998 1.5177279948599998 8.5854614756699998 O
atom 5.9455135864499997 8.2389720948200011 6.0563087450299999 O
atom 3.7083646539200004 5.9457250957600003 3.3615965619199994 O
atom 6.0545332982000000 1.0692689670000002 1.5158051706400000 O
atom 1.1789735351999999 3.8070470954000002 8.2441235003599989 O
atom 3.7081548726799998 3.8198805668400002 1.5230619620799999 O
atom 3.3629761491499996 3.7056045991700000 5.9463417347399998 O
atom 1.5179291546700000 6.0538634140899994 1.0704783093399999 O
atom 8.2447302919299990 1.1759357077099999 3.8072236114600000 O
atom 1.5243907642500001 3.7065180040299999 3.8205435394600000 O
atom 5.9476492888499992 3.3604580780199997 3.7062181906300000 O
atom 1.0710530995300001 1.5156014366599999 6.0540229650699997 O
atom 3.8101533180700002 8.2435531551400008 1.1775966543299998 O
atom 3.8211706535500003 1.5223090551799998 3.7067493849699997 O
atom 1.1641363060799998 8.6987817992399989 1.5335774230799999 O
atom 8.5926472317999991 3.8230328680000003 3.3515200443599995 O
atom 3.7180555748000002 1.0593470496000001 6.4010226246400004 O
atom 1.1751872473199998 1.0607600081599999 3.3584671029199997 O
atom 1.5340529608500000 1.1607895458299999 8.6988043902599994 O
atom 3.3545718053300000 8.5906434809099999 3.8246956756600001 O
atom 6.4024502380700001 3.7163661272900002 1.0601016035399999 O
atom 3.3589513557499995 1.1741225709700001 1.0609855255400000 O
atom 8.6995312411499999 1.5318437569799999 1.1611070243699999 O
atom 3.8259760104700002 3.3507927083399998 8.5911231599299995 O
atom 1.0623476419300000 6.4009537398600003 3.7175773306699997 O
atom 1.0621714664499999 3.3583315198199997 1.1747796800299999 O
atom 8.6025479339199986 1.0624993507600000 8.2294807069199987 O
atom 1.1740370081999998 5.9382482820000000 6.4115380856400002 O
atom 6.0486286651999999 8.7019341004000008 3.3620355053599997 O
atom 8.5914969926800016 8.7005211418399995 6.4045910270800004 O
atom 8.2326312791500005 8.6004916041700010 1.0642537397400000 O
atom 6.4121124346700000 1.1706376690900000 5.9383624543400000 O
atom 3.3642340019299994 6.0449150227100006 8.7029565264599995 O
atom 6.4077328842500005 8.5871585790299996 8.7020726044599996 O
atom 1.0671529988499999 8.2294373930199995 8.6019511056300004 O
atom 5.9407082295300002 6.4104884416600001 1.1719349700699999 O
atom 8.7043365980700003 3.3603274101399996 6.0454807993299999 O
atom 8.7045127735500003 6.4029496301800002 8.5882784499699998 O
