#=======================================================
#Created using the Atomic Simulation Environment (ASE)
#=======================================================
lattice_vector 10.1509558700000007 -0.0294757900000000 -0.0349752800000000 
lattice_vector 0.0250646900000000 8.6973903700000008 -0.0152576300000000 
lattice_vector 0.0319095000000000 0.0155553300000000 9.3272191099999997 
atom 1.6271200884100001 7.4077230466400001 6.4826313328599996 Al
atom 6.7025980234100002 7.3929851516400005 6.4651436928599990 Al
atom 3.5019496295900003 1.2888358933800002 1.8231572814800001 In
atom 8.5774275645899998 1.2740979983800000 1.8056696414800000 Al
atom 0.9692737294700000 3.0530776956200003 1.8288190602200001 In
atom 6.0447516644700006 3.0383398006200002 1.8113314202199999 In
atom 4.1597959885300000 5.6434812444000011 6.4769695541199992 Al
atom 9.2352739235300021 5.6287433494000014 6.4594819141199995 Al
atom 0.9250031163850001 5.7202447802550003 -0.0131698081000000 Al
atom 6.0004810513850009 5.7055068852550006 -0.0306574481000000 Ga
atom 4.1914942586149992 2.9701853597450003 4.6440340931000001 Al
atom 9.2669721936150022 2.9554474647450006 4.6265464530999996 In
atom 1.6491433881550002 1.3772344791650004 4.6555853170199999 Al
atom 6.7246213231549996 1.3624965841650003 4.6380976770200002 Al
atom 3.4992634868450003 7.3287509908350001 9.3024980779799993 Al
atom 8.5747414218450011 7.3140130958350005 9.2850104379800005 In
atom 0.8853098242800002 0.2739855194100000 9.3144962384699994 Al
atom 5.9607877592799996 0.2592476244100000 9.2970085984699988 Al
atom 4.2630332317199997 8.4319688399300023 4.6249327183100002 In
atom 9.3385111667200018 8.4172309449300009 4.6074450783099996 Al
atom 1.7142658006200002 4.6124860246299999 4.6403898955100003 Al
atom 6.7897437356200010 4.5977481296300002 4.6229022555099997 Al
atom 3.4340772553800005 4.0934683347099998 9.2990390612699994 Al
atom 8.5095551903800004 4.0787304397100002 9.2815514212700005 Al
atom 3.5057503183050001 1.3676368747250003 7.3261469582599998 In
atom 8.5812282533050013 1.3528989797250002 7.3086593182600001 Al
atom 1.6290631096949999 7.3317220246950008 2.6585410958799995 Al
atom 6.7045410446949996 7.3169841296950002 2.6410534558799998 Ga
atom 4.1621400448549997 5.7066384683750009 2.6526351950599998 Al
atom 9.2376179798550009 5.6919005733750003 2.6351475550599996 Al
atom 0.9726733831450001 2.9927204310450004 7.3320528590800000 Al
atom 6.0481513181450008 2.9779825360450003 7.3145652190800003 Al
atom 4.2528346692249990 5.8202273522650012 8.3045020572000006 O
atom 9.3283126042250011 5.8054894572650007 8.2870144172000000 O
atom 0.8887435727750002 2.8824292771150004 3.6575564482599998 O
atom 5.9642215077750009 2.8676913821150003 3.6400688082600001 O
atom 3.4224220604950002 1.4660830896750003 3.6512843643199999 O
atom 8.4978999954950005 1.4513451946750002 3.6337967243200002 O
atom 1.7191561815050000 7.2365735397049997 8.3107741411399996 O
atom 6.7946341165049997 7.2218356447050001 8.2932865011400008 O
atom 2.6849225735850006 0.0803234210250000 5.8575024905199999 O
atom 7.7604005085849996 0.0655855260250000 5.8400148505200002 O
atom 2.4398074524150002 8.6141199941150006 1.1797843248600000 O
atom 7.5152853874150010 8.5993820991150010 1.1622966848600000 O
atom 4.9654652393350007 4.4146088882750014 1.1783946825200000 O
atom 10.0409431743350019 4.3998709932750009 1.1609070425200001 O
atom 0.1592647866650000 4.2798345268649998 5.8588921328599994 O
atom 5.2347427216649995 4.2650966318650001 5.8414044928599997 O
atom 0.1007217171550000 7.1944029624950012 1.1157131377000000 O
atom 5.1761996521549998 7.1796650674950007 1.0982254976999999 O
atom 5.0234977568450008 1.4997915673650000 5.7723381719199995 O
atom 10.0989756918450002 1.4850536723649999 5.7548505319199998 O
atom 2.4896187516050001 2.8465586318450002 5.7787323169000002 O
atom 7.5650966866050009 2.8318207368450006 5.7612446768999996 O
atom 2.6346007223950005 5.8476358980150005 1.1093189927200000 O
atom 7.7100786573950000 5.8328980030150008 1.0918313527199999 O
atom 4.9746518299700009 7.2579200255499998 5.9210276850500003 O
atom 10.0501297649700003 7.2431821305500002 5.9035400450499997 O
atom 0.1506525670300000 1.4368033855300002 1.2841490743100001 O
atom 5.2261305020299993 1.4220654905300001 1.2666614343100000 O
atom 2.6926525318300003 2.9079908009300004 1.2728114572100000 O
atom 7.7681304668299997 2.8932529059300007 1.2553238172100001 O
atom 2.4326518651700000 5.7867326101500005 5.9323653021500000 O
atom 7.5081298001700008 5.7719947151500008 5.9148776621500003 O
atom 1.8641421588350000 1.4867068985850003 8.0684649141199998 O
atom 6.9396200938350008 1.4719690035850002 8.0509772741199992 O
atom 3.2757129701650003 7.2151097429749997 3.3899237593999998 O
atom 8.3511909051649997 7.2003718479750001 3.3724361193999997 O
atom 0.7339636522650000 5.8308962312750019 3.4011088001999998 O
atom 5.8094415872649998 5.8161583362750013 3.3836211601999997 O
atom 4.4058914767350004 2.8709204102850006 8.0572798733199988 O
atom 9.4813694117350007 2.8561825152850004 8.0397922333200000 O
atom 4.2718431683500002 0.0103763071500000 8.3798622743299997 O
atom 9.3473211033500014 -0.0043615878500000 8.3623746343299992 O
atom 0.8701818066500001 8.6924980968500005 3.7127772986700003 O
atom 5.9456597416500001 8.6777602018500009 3.6952896586700001 O
atom 3.3954385585300004 4.3538287450900013 3.7116317784100001 O
atom 8.4709164935299999 4.3390908500900007 3.6941441384100000 O
atom 1.7465864164700002 4.3490456589100006 8.3810077945899994 O
atom 6.8220643514700008 4.3343077639100009 8.3635201545900006 O
