#=======================================================
#Created using the Atomic Simulation Environment (ASE)
#=======================================================
lattice_vector 10.5797709100000006 -0.0207772300000000 -0.0477457300000000 
lattice_vector 0.0175258800000000 9.0330497300000001 -0.0283222700000000 
lattice_vector 0.0436585800000000 0.0296967300000000 9.6611628599999992 
atom 1.6957888161000001 7.7045826931599999 6.7022799277699994 Al
atom 6.9856742711000006 7.6941940781599998 6.6784070627699990 In
atom 3.6506532894199997 1.3446272984600001 1.8826045340699999 In
atom 8.9405387444199995 1.3342386834600000 1.8587316690700000 In
atom 1.0092507896800000 3.1744976514199998 1.8888198680299999 In
atom 6.2991362446800006 3.1641090364199997 1.8649470030299999 In
atom 4.3371913158400002 5.8747123402000003 6.6960645938099992 In
atom 9.6270767708400005 5.8643237252000002 6.6721917288099988 Al
atom 0.9584215254849999 5.9418871602549999 -0.0229092964950000 In
atom 6.2483069804850002 5.9314985452550006 -0.0467821614950000 In
atom 4.3708190995150007 3.0956223197450004 4.8012955914949993 In
atom 9.6607045545150001 3.0852337047450007 4.7774227264949998 Al
atom 1.7226516100950002 1.4387354769250000 4.8184433216749998 In
atom 7.0125370650950005 1.4283468619249999 4.7945704566749994 Al
atom 3.6502475949050002 7.6284707330749999 9.6211058333250001 In
atom 8.9401330499050005 7.6180821180750007 9.5972329683249988 In
atom 0.9328414542600001 0.2989132378500000 9.6466413877199990 In
atom 6.2227269092599995 0.2885246228500000 9.6227685227199995 Al
atom 4.4399704335800001 8.7682335786899994 4.7735854415599999 Al
atom 9.7298558885799995 8.7578449636899993 4.7497125765599995 Al
atom 1.7873163188800001 4.7988860049900008 4.7979836728600000 In
atom 7.0772017738800015 4.7884973899900007 4.7741108078599996 Al
atom 3.5854955689600008 4.2682608115499994 9.6222431564199997 Al
atom 8.8753810239600011 4.2578721965500002 9.5983702914199984 In
atom 3.6606824022950004 1.4344439328450000 7.5825356619049993 Al
atom 8.9505678572950007 1.4240553178449999 7.5586627969049998 In
atom 1.6936182476250004 7.6201114701749999 2.7413581147349997 Al
atom 6.9835037026249998 7.6097228551749998 2.7174852497349997 Al
atom 4.3353011614449999 5.9347699128949998 2.7346896244549996 Ga
atom 9.6251866164450011 5.9243812978949997 2.7108167594549997 Al
atom 1.0189994884750000 3.1197854901249999 7.5892041521849993 Al
atom 6.3088849434750012 3.1093968751249998 7.5653312871849998 Al
atom 4.4360269678549997 6.0610172874250008 8.5886802302650000 O
atom 9.7259124228550000 6.0506286724250007 8.5648073652649988 O
atom 0.9275293010250002 2.9998338223549998 3.7833800726950000 O
atom 6.2174147560250006 2.9894452073550002 3.7595072076950000 O
atom 3.5696328359650003 1.5312854585950002 3.7760318479349997 O
atom 8.8595182909650010 1.5208968435950003 3.7521589829349997 O
atom 1.7939234329150002 7.5295656511850000 8.5960284550249995 O
atom 7.0838088879149996 7.5191770361849999 8.5721555900249999 O
atom 2.8048088436150005 0.0945226678650000 6.0640832843849992 O
atom 8.0946942986149999 0.0841340528650000 6.0402104193849997 O
atom 2.5356956950249998 8.9506485684749997 1.2068830284949998 O
atom 7.8255811500250010 8.9402599534749996 1.1830101634949999 O
atom 5.1721909483650013 4.5915242911149994 1.2085979301349998 O
atom 10.4620764033650016 4.5811356761149993 1.1847250651349999 O
atom 0.1683135902750000 4.4536469452250005 6.0623683827449995 O
atom 5.4581990452749993 4.4432583302250004 6.0384955177449999 O
atom 0.0991248727650000 7.4737696018149995 1.1452200957949998 O
atom 5.3890103277649999 7.4633809868149994 1.1213472307949999 O
atom 5.2406811285949999 1.5709264868449999 5.9711676113249998 O
atom 10.5305665835950002 1.5605378718449998 5.9472947463249994 O
atom 2.5984373866150001 2.9672104527650003 5.9787424142449996 O
atom 7.8883228416150013 2.9568218377650002 5.9548695492449992 O
atom 2.7413686147450003 6.0774856358950000 1.1376452928749998 O
atom 8.0312540697449997 6.0670970208949999 1.1137724278749999 O
atom 5.1842569461000005 7.5514453045099987 6.1169683844499998 O
atom 10.4741424010999999 7.5410566895099986 6.0930955194499994 O
atom 0.1570334469800000 1.4942604729700002 1.3278988599100001 O
atom 5.4469189019800002 1.4838718579700001 1.3040259949099999 O
atom 2.8049555740800001 3.0246846195700003 1.3111476415100001 O
atom 8.0948410290800012 3.0142960045700002 1.2872747765100001 O
atom 2.5363348189999999 6.0210211579099999 6.1337196028499994 O
atom 7.8262202740000006 6.0106325429099998 6.1098467378499999 O
atom 1.9504363791350001 1.5575855322650003 8.3531341465950000 O
atom 7.2403218341350000 1.5471969172650002 8.3292612815949987 O
atom 3.4107623264250000 7.5016619540949989 3.4972233619249997 O
atom 8.7006477814249994 7.4912733390949997 3.4733504969249998 O
atom 0.7630154581250002 6.0615683047950002 3.5136913576249995 O
atom 6.0529009131250007 6.0511796897950001 3.4898184926249995 O
atom 4.5981832474350002 2.9976791815650001 8.3366661508949989 O
atom 9.8880687024350014 2.9872905665650005 8.3127932858949993 O
atom 4.4616544882599998 0.0270752245900000 8.6750605365899993 O
atom 9.7515399432600027 0.0166866095900000 8.6511876715899998 O
atom 0.9025130007400001 9.0341916394100004 3.8322560464099999 O
atom 6.1923984557400003 9.0238030244100003 3.8083831814100000 O
atom 3.5387278400000004 4.5305385663699997 3.8344241043700000 O
atom 8.8286132949999985 4.5201499513699996 3.8105512393700001 O
atom 1.8254396490000004 4.5307282976300005 8.6728924786299988 O
atom 7.1153251040000010 4.5203396826300004 8.6490196136299993 O
