#=======================================================
#Created using the Atomic Simulation Environment (ASE)
#=======================================================
lattice_vector 12.3133320099999999 0.0000051200000000 -0.0385285000000000 
lattice_vector -0.0000041400000000 3.2416499999999999 -0.0000054400000000 
lattice_vector -1.6999644800000000 -0.0000087000000000 6.2662969100000003 
atom 10.8443260786900009 0.0000028705800000 1.2495684600499999 Ga
atom -0.2309585486900001 -0.0000064505800000 4.9781999499500005 Al
atom 4.6876580036899993 1.6208253105800001 1.2688299900500000 In
atom 5.9257053863099998 1.6208211094199998 4.9589329799500002 In
atom 9.1893345171299980 1.6208233377199999 4.2662744917600008 Ga
atom 1.4240288728699999 1.6208230822800000 1.9614884782400002 In
atom 3.0326705821300006 -0.0000042222800000 4.2855414617600003 In
atom 7.5806969478700008 0.0000006422800000 1.9422269482400001 In
atom 8.7686638411499995 -0.0000034678000000 5.5448329524000002 O
atom 1.8447036888499999 -0.0000001122000000 0.6829354576000001 O
atom 2.6119957661500006 1.6208189721999999 5.5640944824000007 O
atom 8.0013676238499993 1.6208274478000000 0.6636684876000001 O
atom 9.4402410945099984 0.0000004323400000 2.7065086801700002 O
atom 1.1731264354899997 -0.0000040123400000 3.5212597298299997 O
atom 3.2835730195099999 1.6208228723400000 2.7257702101700003 O
atom 7.3297903704900005 1.6208235476599999 3.5019927598299998 O
atom -1.2138223505999999 1.6208185563799999 4.6557017701300003 O
atom 11.8271857405999992 1.6208278636200000 1.5720611998700000 O
atom 4.9428457243999997 -0.0000038836200000 4.6364402401300007 O
atom 5.6705218056000000 0.0000003036200000 1.5913281698700001 O
