#=======================================================
#Created using the Atomic Simulation Environment (ASE)
#=======================================================
lattice_vector 9.4581051800000004 0.0176594100000000 -0.0197909000000000 
lattice_vector -0.0173314200000000 9.4576968200000007 0.0146402900000000 
lattice_vector 0.0193742900000000 -0.0149502400000000 9.4578886900000008 
atom 7.1037767474999995 2.3664560825000005 7.0822334150000001 Al
atom 2.3660584474999999 7.0864747875000003 7.0994490100000007 Al
atom 7.0854238924999997 7.1027796125000000 2.3606092150000002 In
atom 7.0951110374999997 7.0953044925000004 7.0895535600000006 Al
atom 2.3563713024999999 7.0939499074999999 2.3705046650000003 Al
atom 7.0940896024999995 2.3739312025000006 2.3532890700000002 In
atom 2.3747241575000002 2.3576263775000004 7.0921288650000003 Al
atom 2.3650370125000002 2.3651014975000004 2.3631845200000003 Ga
atom 7.0951895882800002 4.4130561556200014 4.7209235451400007 Ga
atom 2.3477841432800002 9.1405499806200012 0.0091947951400000 In
atom 7.0843239067199999 5.0636546593800009 -0.0070252601400000 Al
atom 4.7250824441399999 7.0951355081600003 4.4084608970400003 Al
atom 0.0143827091400000 2.3499822731600002 9.1399805470400004 In
atom -0.0026526941400000 7.0852891868399999 5.0614927779600007 Al
atom 4.4133420213800001 4.7258650150600001 7.0915141031000006 Al
atom 9.1413731763800001 0.0133214300600000 2.3453541631000001 Al
atom 5.0651588836199997 -0.0017825550600000 7.0828481769000007 In
atom 2.3649584617200001 5.0473498343800012 4.7318145348600007 Al
atom 7.0929896167200006 0.3348062493800000 -0.0143454051400000 In
atom 2.3564498532800000 4.4117015706200009 0.0018746501400000 Ga
atom 4.7350656058600000 2.3652704818400001 5.0442771829600010 In
atom -0.0123398391400000 7.0927643068400004 0.3325484329600000 Al
atom 0.0046955641400000 2.3574573931600002 4.4110362020400009 Al
atom 5.0468060286199998 4.7345409749399998 2.3612239769000003 In
atom 0.3361062936200001 -0.0106122600600000 7.0927436269000008 Al
atom 4.4123205863799999 0.0044917250600000 2.3552496131000002 Al
atom 2.3736241717200000 0.3185014243800001 4.7244943898600003 In
atom 4.7253784608600000 2.3727456018400002 0.3153328379600001 Al
atom 0.3177534386200001 4.7257112699399997 2.3711194269000000 Al
atom 7.0865238782800004 9.1419045656200009 4.7282436901400002 Ga
atom 4.7347695891399999 7.0876603881599998 9.1374052420399998 In
atom 9.1423946113799985 4.7346947200600003 7.0816186531000005 Ga
atom 5.8699581606200004 3.6991009333800005 6.1978289760300012 O
atom 3.5949895739400000 8.4209004398600005 7.9879820107500006 O
atom 8.3156001128600003 5.7729454067399999 1.4669305802500001 O
atom 5.8698222775800009 5.7580681950199999 7.9791036329700002 O
atom 6.2013468650700014 5.8695110575200014 3.6941286271900005 O
atom 7.9933173247100004 3.5955086698000001 8.4158386133900009 O
atom 1.4720117010900002 8.3164233734000010 5.7696502870100002 O
atom 7.9836942341299997 5.8695718742800009 5.7522276724100001 O
atom 3.6987617736600003 6.2018847944300006 5.8657567761400005 O
atom 8.4199062271000003 7.9923495591900009 3.5887204150600005 O
atom 5.7743317283000009 1.4729990734100000 8.3131732743400004 O
atom 5.7573703959400007 7.9837815479700005 5.8641947344600007 O
atom 3.5901898893799999 5.7613050566199995 3.2549091039700002 O
atom 5.8651584760600004 1.0395055501399999 1.4647560692500001 O
atom 1.1445479371400000 3.6874605832600005 7.9858074997500008 O
atom 3.5903257724200000 3.7023377949800005 1.4736344470300000 O
atom 3.2588011849300003 3.5908949324799999 5.7586094528100000 O
atom 1.4668307252900001 5.8648973202000008 1.0368994666100000 O
atom 7.9881363489100004 1.1439826166000000 3.6830877929900003 O
atom 1.4764538158700000 3.5908341157199999 3.7005104075900004 O
atom 5.7613862763400006 3.2585211955699998 3.5869813038600005 O
atom 1.0402418229000001 1.4680564308100001 5.8640176649400004 O
atom 3.6858163217000004 7.9874069165900003 1.1395648056600001 O
atom 3.7027776540600001 1.4766244420300001 3.5885433455400002 O
atom 1.1225527156200001 8.4265947583800020 1.4861002260300000 O
atom 8.3230207289399996 3.7083568548600003 3.2418220707500001 O
atom 3.6049003778599999 1.0277921717400000 6.1984502302500006 O
atom 1.1397482525800000 1.0278652000200001 3.2527345929700000 O
atom 1.4906471300700002 1.1243578225199999 8.4256482771900014 O
atom 3.2459118797099999 8.3230024948000008 3.7041098633900003 O
atom 6.2000428560900005 3.6038797884000000 1.0234903470100001 O
atom 3.2536202091300002 1.1393688792799999 1.0258586324100001 O
atom 8.4267929286600012 1.4893412094300000 1.1195968361399999 O
atom 3.7092064921000003 3.2471963241899995 8.3202400650600001 O
atom 1.0269262833000001 6.2004928984100012 3.6014445243400002 O
atom 1.0272963709400000 3.2535785529699996 1.1378256944600000 O
atom 8.3375953343800013 1.0338112316200001 7.9666378539700000 O
atom 1.1371273210600001 5.7520491351400000 6.2109160092500009 O
atom 5.8552476721400009 8.4326138182600019 3.2542878497499999 O
atom 8.3203997974200021 8.4325407899800009 6.2000034870300009 O
atom 7.9695009199299998 8.3360481674800013 1.0270898028100002 O
atom 6.2142361702900004 1.1374034951999998 5.7486282166100002 O
atom 3.2601051939100003 5.8565262016000004 8.4292477329900013 O
atom 6.2065278408700015 8.3210371107200007 8.4268794475900002 O
atom 1.0333551213400001 7.9710647805700008 8.3331412438600001 O
atom 5.7509415579000009 6.2132096658100000 1.1324980149400001 O
atom 8.4332217667000009 3.2599130915899996 5.8512935556600008 O
atom 8.4328516790599988 6.2068274370300003 8.3149123855400013 O
