#=======================================================
#Created using the Atomic Simulation Environment (ASE)
#=======================================================
lattice_vector 9.3734479600000000 0.0212685400000000 -0.0249163800000000 
lattice_vector -0.0207193200000000 9.3731005700000001 0.0168577700000000 
lattice_vector 0.0243849000000000 -0.0173253000000000 9.3731128899999998 
atom 7.0431948149999997 2.3462325724999999 7.0153618250000003 Al
atom 2.3461111749999999 7.0221485875000011 7.0362488999999995 Al
atom 7.0206427050000002 7.0414455075000006 2.3372342649999998 In
atom 7.0328351549999999 7.0327828575000009 7.0237907100000001 Al
atom 2.3339187249999997 7.0308112375000009 2.3496924550000000 Al
atom 7.0310023650000000 2.3548952225000002 2.3288053799999999 Ga
atom 2.3564708350000001 2.3355983024999998 7.0278200149999996 In
atom 2.3442783850000000 2.3442609525000000 2.3412635699999997 Ga
atom 7.0326232168799994 4.3751536206200008 4.6757248808199998 Al
atom 2.3233471268799999 9.0597322856200009 0.0100555108200000 In
atom 7.0190218531199999 5.0211871093800005 -0.0096852358200000 Al
atom 4.6825478534000000 7.0323861076999998 4.3680557442400003 Ga
atom 0.0183759834000000 2.3265389026999999 9.0586414942399998 In
atom -0.0025179534000000 7.0205737173000005 5.0178856107600005 Ga
atom 4.3759557643600004 4.6834674496400002 7.0266525194199998 Al
atom 9.0608469543600005 0.0162140846400000 2.3192089994199998 Al
atom 5.0237098856400006 -0.0016365746400000 7.0165293205800001 Ga
atom 2.3444903231200001 5.0018901893800010 4.6893293991800000 Al
atom 7.0293815131199997 0.3346368243800000 -0.0181141208200000 Al
atom 2.3337067868800001 4.3731820006200008 0.0016266258200000 Ga
atom 4.6945656865999998 2.3446577023000001 4.9969985357600004 Ga
atom -0.0147104034000000 7.0292363673000002 0.3313291657600000 Al
atom 0.0061835334000000 2.3352015527000001 4.3720850492399999 Ga
atom 5.0011577756400012 4.6935763603599998 2.3384017605800000 Ga
atom 0.3369859056400000 -0.0122708446400000 7.0289875105799995 Al
atom 4.3741229743600005 0.0055798146400000 2.3316671894200001 Ga
atom 2.3548499831200003 0.3153399043800000 4.6809005141800002 In
atom 4.6823732365999993 2.3533203523000004 0.3104420907600000 In
atom 0.3144337956400001 4.6829420903600001 2.3508599505799999 Al
atom 7.0222635568799996 9.0617039056199999 4.6841537658199996 Al
atom 4.6947403033999997 7.0237234577000001 9.0546121892400002 Al
atom 9.0626797443600005 4.6941017196400008 7.0141943294199995 Ga
atom 5.8194329754800007 3.6667034208699998 6.1399052883100005 O
atom 3.5640301662800002 8.3448920998700000 7.9164593278299993 O
atom 8.2398201833200009 5.7242318155299996 1.4505455783699999 O
atom 5.8195005249199996 5.7067821887300001 7.9057255054899995 O
atom 6.1456703792600003 5.8185003233399994 3.6589938121099999 O
atom 7.9250436825400001 3.5642920220600001 8.3368201128700008 O
atom 1.4588752842599999 8.2410952861400002 5.7191736323299995 O
atom 7.9131945039399998 5.8187218934600002 5.6976481426899994 O
atom 3.6665449164400004 6.1463282870599993 5.8126463843399998 O
atom 8.3435212882799998 7.9232635362200003 3.5538103615000001 O
atom 5.7266563057200006 1.4599099657800001 8.2357950798999990 O
atom 5.7060613395599997 7.9131077359399997 5.8103838742600002 O
atom 3.5576805645200000 5.7103403891299997 3.2251489916899998 O
atom 5.8130833737199996 1.0321517101300000 1.4485949521699999 O
atom 1.1372933566799999 3.6528119944699999 7.9145087016300000 O
atom 3.5576130150799998 3.6702616212700003 1.4593287745099999 O
atom 3.2314431607400000 3.5585434866600001 5.7060604678899995 O
atom 1.4520698574600002 5.8127517879399999 1.0282341671299999 O
atom 7.9182382557399995 1.1359485238600000 3.6458806476699999 O
atom 1.4639190360600001 3.5583219165400002 3.6674061373100000 O
atom 5.7105686235599995 3.2307155229399998 3.5524078956600000 O
atom 1.0335922517199998 1.4537802737800001 5.8112439184999998 O
atom 3.6504572342800001 7.9171338442200003 1.1292592000999999 O
atom 3.6710522004400001 1.4639360740600000 3.5546704057400000 O
atom 1.1101568854799999 8.3512820858700003 1.4742359183100000 O
atom 8.2489213562800003 3.6776387348699999 3.2090158078299997 O
atom 3.5756483133199999 1.0183846105300001 6.1411313283700002 O
atom 1.1309437549200001 1.0182602837300001 3.2231983654899996 O
atom 1.4814985092600002 1.1126531183399999 8.3495795621099997 O
atom 3.2157675925399998 8.2488706870600002 3.6711507428700001 O
atom 6.1437664742600004 3.5738419211400001 1.0117301123300000 O
atom 3.2246377339399999 1.1301999884600000 1.0151210026899999 O
atom 8.3514361064399996 1.4790749220600001 1.1052028643400000 O
atom 3.6793494182799997 3.2174163312199999 8.2443961115000004 O
atom 1.0173802157199998 6.1444886307799997 3.5701257099000001 O
atom 1.0175045695600000 3.2245858309399997 1.1278567342599999 O
atom 8.2669566545200013 1.0257617241300001 7.8908183616899992 O
atom 1.1281921837200000 5.6994050751299996 6.1560384721700006 O
atom 5.8014652266799995 8.3586591994699990 3.2239229516299996 O
atom 8.2461697850799993 8.3587835262700008 6.1418559145099998 O
atom 7.8956150307400002 8.2643906916599992 1.0154747178899999 O
atom 6.1613459474600001 1.1281731229400001 5.6939035371299997 O
atom 3.2333470657399994 5.8032018888599994 8.3533241676699994 O
atom 6.1524758060600009 8.2468438215400006 8.3499332773100008 O
atom 1.0256774335600001 7.8979688879400003 8.2598514156600000 O
atom 5.6977641217199997 6.1596274787800001 1.1206581684999999 O
atom 8.3597333242800005 3.2325551792199998 5.7949285700999997 O
atom 8.3596089704400001 6.1524579790600002 8.2371975457399991 O
