#=======================================================
#Created using the Atomic Simulation Environment (ASE)
#=======================================================
lattice_vector 11.9896516799999997 -0.0000018300000000 0.0307179500000000 
lattice_vector -0.0000117800000000 2.9950809100000000 0.0000444500000000 
lattice_vector -1.4561584599999999 -0.0000001700000000 5.6413261400000003 
atom 10.6000808928199994 -0.0000016983200000 1.1843944752500000 Al
atom -0.0665876728200000 -0.0000003016800000 4.4876496147500005 Al
atom 4.6052491628199999 1.4975396716800000 1.1690577252500001 Al
atom 5.9282322771799993 1.4975392383199999 4.5030308147500007 Al
atom 9.0843664693199990 1.4975387993499998 3.8958057529900003 Al
atom 1.4491149706799999 1.4975401106499999 1.7762827870100002 Al
atom 3.0895465193199998 -0.0000007406500000 3.8804245529900006 Al
atom 7.4439467006799998 -0.0000012593500000 1.7916195370100001 In
atom 8.7153781233999990 -0.0000016793500000 5.0464297528500000 O
atom 1.8181150966000001 -0.0000003206500000 0.6256143371500000 O
atom 2.7205463934000003 1.4975396906499998 5.0310930028500005 O
atom 7.8129350466000007 1.4975392193499999 0.6409955371500000 O
atom 9.2791006923399983 -0.0000015877000000 2.4906632678300000 O
atom 1.2543925276599999 -0.0000004123000000 3.1813808221700000 O
atom 3.2842689623400001 1.4975397823000001 2.4753265178300001 O
atom 7.2492124776599987 1.4975391277000001 3.1967620221699997 O
atom -1.0339730190600001 1.4975403213700000 4.1916504188200001 O
atom 11.5674544590599986 1.4975385886299999 1.4804381211800002 O
atom 4.9608587109400002 -0.0000010486300000 4.2069871688200005 O
atom 5.5726345090600002 -0.0000009513700000 1.4650569211800000 O
