#=======================================================
#Created using the Atomic Simulation Environment (ASE)
#=======================================================
lattice_vector 9.3442134200000009 0.0228952000000000 -0.0273849100000000 
lattice_vector -0.0221997900000000 9.3439225599999993 0.0180026000000000 
lattice_vector 0.0267859200000000 -0.0185710700000000 9.3438139899999992 
atom 7.0226995575000002 2.3392237374999998 6.9918224599999999 Al
atom 2.3394929525000001 6.9997374174999996 7.0145162149999996 Ga
atom 6.9982067025000001 7.0204705524999991 2.3289167649999998 In
atom 7.0115996625000001 7.0111850174999990 7.0008237599999994 Ga
atom 2.3260999925000001 7.0090229524999996 2.3426092199999999 Ga
atom 7.0093065975000002 2.3485092724999999 2.3199154649999998 Al
atom 2.3505928475000002 2.3277761374999999 7.0055149149999991 Al
atom 2.3371998875000002 2.3370616725000000 2.3336079199999999 Al
atom 7.0112079228600006 4.3621537779599997 4.6597575240999998 Al
atom 2.3146083578600001 9.0319529929599991 0.0105442841000000 Al
atom 6.9963053771400006 5.0068260470399997 -0.0109252941000000 Ga
atom 4.6679391062200004 7.0107354013799998 4.3540268143400001 Al
atom 0.0203252512200000 2.3180409863799998 9.0306249643399994 Al
atom -0.0023461612200000 6.9980249686199993 5.0030986206599994 Al
atom 4.3633929987200002 4.6687021406999998 7.0041004244399998 Ga
atom 9.0332066437200016 0.0174739957000000 2.3094996744399996 Ga
atom 5.0098994062800006 -0.0017022657000000 6.9932369505599992 Ga
atom 2.3375916271400001 4.9860929120400002 4.6746741559000000 In
atom 7.0074052721400006 0.3348647670400000 -0.0199265941000000 Ga
atom 2.3257082528600002 4.3599917129600003 0.0015429841000000 Ga
atom 4.6808604437800012 2.3375112886199996 4.9804048656599997 In
atom -0.0157391212200000 7.0073105036199994 0.3311916256600000 In
atom 0.0069322912200000 2.3273265213799998 4.3587179693399998 Ga
atom 4.9854065512800005 4.6795445492999992 2.3303312555600000 Al
atom 0.3377926962800001 -0.0131498657000000 7.0069294055599993 Ga
atom 4.3610999337200003 0.0060263957000000 2.3231921294399998 Al
atom 2.3486915221400002 0.3141316320400000 4.6656728558999996 Al
atom 4.6674674837800012 2.3467968236199996 0.3084978706600000 Al
atom 0.3132998412800000 4.6680969492999997 2.3440237105599997 Ga
atom 7.0001080278600005 9.0341150579599994 4.6687588240999993 Ga
atom 4.6813320662200004 7.0014498663799998 9.0259338093399997 Ga
atom 9.0354997087200015 4.6801497406999992 6.9904079694399996 Ga
atom 5.8023037660300005 3.6554861230399998 6.1196023498400001 O
atom 3.5536284031900003 8.3184611938799993 7.8918130583599995 O
atom 8.2135667410100002 5.7076995281199991 1.4444998450400000 O
atom 5.8024999647700009 5.6889698799599993 7.8801639467599989 O
atom 6.1265134284400009 5.8009899500300000 3.6466283811299998 O
atom 7.9019464609999996 3.5534672982299997 8.3090663890499989 O
atom 1.4544741036000002 8.2149137223699995 5.7019529619499991 O
atom 7.8890648819600004 5.8012457543700000 5.6784314678699994 O
atom 3.6556316553800006 6.1270511591599996 5.7942668795899994 O
atom 8.3171361840600007 7.8996132572399995 3.5414435557899999 O
atom 5.7107344151400010 1.4552525545599999 8.2086873066099990 O
atom 5.6884966204200005 7.8886997540399992 5.7916814580099993 O
atom 3.5464957839700002 5.6927605669599988 3.2148293301599993 O
atom 5.7951711468100005 1.0297854961199999 1.4426186216399999 O
atom 1.1352328089900001 3.6405471618799994 7.8899318349599987 O
atom 3.5462995852300008 3.6592768100399997 1.4542677332399998 O
atom 3.2222861215599998 3.5472567399699999 5.6878032988699996 O
atom 1.4468530890000002 5.7947793917699997 1.0253652909500000 O
atom 7.8943254463999999 1.1333329676299999 3.6324787180499998 O
atom 1.4597346680400001 3.5470009356299999 3.6560002121299999 O
atom 5.6931678946200011 3.2211955308399993 3.5401648004099999 O
atom 1.0316633659400001 1.4486334327599999 5.7929881242099999 O
atom 3.6380651348600006 7.8929941354399995 1.1257443733899999 O
atom 3.6603029295800003 1.4595469359600000 3.5427502219899996 O
atom 1.1057042010300000 8.3252853380400005 1.4703891098399999 O
atom 8.2234420481899999 3.6672330488799996 3.1972123083599997 O
atom 3.5659528860100007 1.0150051131200000 6.1210979950399995 O
atom 1.1281001897700000 1.0148465349600000 3.2129481067599994 O
atom 1.4788995734400001 1.1082955350299999 8.3232265311299987 O
atom 3.2053468960000004 8.2232665132300014 3.6598531490499999 O
atom 6.1242877486000014 3.5636855773699998 1.0073522119500000 O
atom 3.2146651069600001 1.1271224093699999 1.0112156278700000 O
atom 8.3254453003800020 1.4758230141599999 1.0996661295899999 O
atom 3.6695223290600003 3.2069188422399999 8.2180417057900002 O
atom 1.0141348501400003 6.1250517695599997 3.5594740666099995 O
atom 1.0140968454200001 3.2145764090399997 1.1244656180099999 O
atom 8.2430953489700016 1.0229613519600000 7.8640425701599987 O
atom 1.1253575018100002 5.6810136411199990 6.1372193716399996 O
atom 5.7828466639900009 8.3332415768799990 3.2133336849599994 O
atom 8.2206993602300020 8.3334001550399996 6.1214835732399999 O
atom 7.8698999765600002 8.2399511549699991 1.0112051488700000 O
atom 6.1434526540000016 1.1249801767699998 5.6745785309499990 O
atom 3.2245118014000003 5.7845611126299996 8.3270794680500000 O
atom 6.1341344430400007 8.2211242806300007 8.3232160521300003 O
atom 1.0233542496200001 7.8724236758399995 8.2347655504099997 O
atom 5.6792772209400004 6.1413278477599995 1.1163899742099999 O
atom 8.3346646998600011 3.2231949204399997 5.7749576133899998 O
atom 8.3347027045799997 6.1336702809599997 8.2099660619899986 O
