#=======================================================
#Created using the Atomic Simulation Environment (ASE)
#=======================================================
lattice_vector 6.7452765100000001 -0.0440118800000000 0.0094508300000000 
lattice_vector -3.3332276400000000 5.8637745900000002 0.0361034000000000 
lattice_vector -0.0348669100000000 -0.1744811700000000 24.7110580499999983 
atom -0.0087167275000000 -0.0436202925000000 6.1777645124999996 In
atom -0.0261501825000000 -0.1308608775000000 18.5332935375000005 Ga
atom 5.0699459624999994 2.8442551224999999 6.2052670424999992 Ga
atom 5.0525125074999995 2.7570145374999999 18.5607960675000001 In
atom 3.3639215275000001 -0.0656262325000000 6.1824899274999998 In
atom 3.3464880725000001 -0.1528668175000000 18.5380189524999999 In
atom 1.6973077075000000 2.8662610625000000 6.2005416274999998 In
atom 1.6798742525000001 2.7790204775000000 18.5560706524999972 Ga
atom 0.0000000000000000 0.0000000000000000 0.0000000000000000 In
atom -0.0174334550000000 -0.0872405850000000 12.3555290249999992 In
atom 5.0786626899999998 2.8878754149999999 0.0275025300000000 In
atom 5.0612292349999999 2.8006348299999999 12.3830315549999987 Ga
atom 3.3726382550000000 -0.0220059400000000 0.0047254150000000 Ga
atom 3.3552048000000001 -0.1092465250000000 12.3602544399999985 In
atom 1.7060244350000000 2.9098813550000000 0.0227771150000000 Ga
atom 1.6885909800000001 2.8226407700000000 12.3783061399999994 Ga
atom 0.0087771942295001 1.9252513447950002 3.1024905002894996 In
atom -0.0086562607704999 1.8380107597950002 15.4580195252894992 Ga
atom -1.6578366257704999 4.8571386397950000 3.1205422002894996 In
atom -1.6752700807704999 4.7698980547950001 15.4760712252894983 In
atom 3.3814154492294990 1.9032454047950000 3.1072159152894998 Ga
atom 3.3639819942294991 1.8160048197950001 15.4627449402894985 Al
atom 1.7148016292294994 4.8351326997950004 3.1252676152894998 Ga
atom 1.6973681742294995 4.7478921147950004 15.4807966402894994 Al
atom 1.6798137857704998 0.8973894252050000 9.2758156397104994 Ga
atom 1.6623803307704996 0.8101488402050000 21.6313446647104968 Ga
atom 0.0131999657704999 3.8292767202049998 9.2938673397104985 In
atom -0.0042334892295001 3.7420361352049998 21.6493963647104977 In
atom 5.0524520407705005 0.8753834852050000 9.2805410547104987 Al
atom 5.0350185857705005 0.7881429002050000 21.6360700797104997 In
atom 3.3858382207705007 3.8072707802050001 9.2985927547104996 In
atom 3.3684047657705007 3.7200301952050001 21.6541217797104970 In
atom 0.0059198509550001 1.9109526129135002 5.1275617074869997 O
atom -0.0115136040449999 1.8237120279135002 17.4830907324869997 O
atom -1.6606939690450000 4.8428399079134996 5.1456134074869997 O
atom -1.6781274240449999 4.7555993229134996 17.5011424324869971 O
atom 3.3785581059549994 1.8889466729135000 5.1322871224869999 O
atom 3.3611246509549990 1.8017060879135001 17.4878161474869991 O
atom 1.7119442859549994 4.8208339679134999 5.1503388224869999 O
atom 1.6945108309549994 4.7335933829135000 17.5058678474869964 O
atom 1.6826711290449998 0.9116881570865000 7.2507444325129988 O
atom 1.6652376740449997 0.8244475720865000 19.6062734575129980 O
atom 0.0160573090449999 3.8435754520864998 7.2687961325129988 O
atom -0.0013761459550001 3.7563348670864998 19.6243251575129989 O
atom 5.0553093840450005 0.8896822170865000 7.2554698475129991 O
atom 5.0378759290450006 0.8024416320865000 19.6109988725130009 O
atom 3.3886955640450007 3.8215695120865001 7.2735215475129991 O
atom 3.3712621090450008 3.7343289270865001 19.6290505725129982 O
atom 1.6769564424959997 0.8830906933235000 11.3008868469079999 O
atom 1.6595229874959998 0.7958501083235000 23.6564158719079991 O
atom 0.0103426224959999 3.8149779883234998 11.3189385469079991 O
atom -0.0070908325040001 3.7277374033234998 23.6744675719079964 O
atom 5.0495946974960004 0.8610847533235000 11.3056122619079993 O
atom 5.0321612424960005 0.7738441683235000 23.6611412869079984 O
atom 3.3829808774960006 3.7929720483235001 11.3236639619080002 O
atom 3.3655474224960007 3.7057314633235001 23.6791929869079993 O
atom 0.0116345375040001 1.9395500766765001 1.0774192930919999 O
atom -0.0057989174959999 1.8523094916765002 13.4329483180920004 O
atom -1.6549792824959999 4.8714373716765005 1.0954709930919999 O
atom -1.6724127374960001 4.7841967866764996 13.4510000180919995 O
atom 3.3842727925039990 1.9175441366765000 1.0821447080919999 O
atom 3.3668393375039991 1.8303035516765001 13.4376737330919998 O
atom 1.7176589725039995 4.8494314316765008 1.1001964080919999 O
atom 1.7002255175039993 4.7621908466764999 13.4557254330920006 O
atom -0.0043583637500000 -0.0218101462500000 3.0888822562499998 O
atom -0.0217918187500000 -0.1090507312500000 15.4444112812499981 O
atom 5.0743043262500001 2.8660652687499999 3.1163847862499998 O
atom 5.0568708712500001 2.7788246837499999 15.4719138112499994 O
atom 3.3682798912499998 -0.0438160862500000 3.0936076712499996 O
atom 3.3508464362499999 -0.1310566712500000 15.4491366962499992 O
atom 1.7016660712500000 2.8880712087500000 3.1116593712499996 O
atom 1.6842326162500001 2.8008306237500000 15.4671883962499983 O
atom -0.0130750912500000 -0.0654304387500000 9.2666467687500003 O
atom -0.0305085462500000 -0.1526710237500000 21.6221757937499994 O
atom 5.0655875987499996 2.8224449762499999 9.2941492987499998 O
atom 5.0481541437499997 2.7352043912499999 21.6496783237499990 O
atom 3.3595631637499999 -0.0874363787500000 9.2713721837499996 O
atom 3.3421297087499999 -0.1746769637500000 21.6269012087499988 O
atom 1.6929493437500001 2.8444509162500000 9.2894238837499987 O
atom 1.6755158887499999 2.7572103312500000 21.6449529087499997 O
