#=======================================================
#Created using the Atomic Simulation Environment (ASE)
#=======================================================
lattice_vector 10.1947591899999992 -0.0330563500000000 -0.0381031300000000 
lattice_vector 0.0281185500000000 8.7347521500000003 -0.0167011600000000 
lattice_vector 0.0347946100000000 0.0172174400000000 9.3629872899999995 
atom 1.6385631628599999 7.4401178447300005 6.5058453656899990 Al
atom 6.7359427578600002 7.4235896697300001 6.4867938006899992 Al
atom 3.5180413634799992 1.2934985216299999 1.8289125465700000 Ga
atom 8.6154209584799979 1.2769703466300000 1.8098609815700000 Al
atom 0.9750315130799999 3.0661825434299996 1.8350646947500000 Al
atom 6.0724111080799990 3.0496543684299997 1.8160131297500000 Al
atom 4.1815730132600004 5.6674338229300005 6.4996932175099991 Al
atom 9.2789526082599991 5.6509056479300002 6.4806416525099992 Al
atom 0.9309329534049998 5.7445083713750007 -0.0143995934150000 Ga
atom 6.0283125484050002 5.7279801963750003 -0.0334511584150000 Al
atom 4.2119624965949995 2.9823243236250003 4.6601405134149996 In
atom 9.3093420915949991 2.9657961486250000 4.6410889484149997 Al
atom 1.6580988858949999 1.3833940155250000 4.6727393093549994 In
atom 6.7554784808949995 1.3668658405250000 4.6536877443549995 Ga
atom 3.5195911741050003 7.3606561194749993 9.3359889006449990 In
atom 8.6169707691049986 7.3441279444749998 9.3169373356449992 Al
atom 0.8919631438500000 0.2764660536600000 9.3499226049899988 Al
atom 5.9893427388499987 0.2599378786600000 9.3308710399899990 Al
atom 4.2856573269299991 8.4675496464600002 4.6400796304299998 In
atom 9.3830369219300014 8.4510214714600007 4.6210280654300000 Al
atom 1.7245953674299999 4.6325227879600011 4.6569539233299997 Al
atom 6.8219749624299997 4.6159946129600007 4.6379023583299999 Al
atom 3.4530251033500003 4.1114929121599992 9.3330483120899999 In
atom 8.5504046983499986 4.0949647371599989 9.3139967470900000 In
atom 3.5235029929950001 1.3735844129550003 7.3529985930850001 Ga
atom 8.6208825879950002 1.3570562379550002 7.3339470280850003 Al
atom 1.6393645631449998 7.3631310926050002 2.6670970313749995 Al
atom 6.7367441581449983 7.3466029176049998 2.6480454663749997 Al
atom 4.1828243103449987 5.7302031052050006 2.6606776646349997 Al
atom 9.2802039053449992 5.7136749302050012 2.6416260996349998 Al
atom 0.9800432457949999 3.0065124003550006 7.3594179598249996 In
atom 6.0774228407950002 2.9899842253550006 7.3403663948249998 Ga
atom 4.2756105809350000 5.8452225051950011 8.3341808265449995 O
atom 9.3729901759349996 5.8286943301950007 8.3151292615449997 O
atom 0.8946334325250000 2.8951430976450006 3.6708681033950001 O
atom 5.9920130275250001 2.8786149226450006 3.6518165383949999 O
atom 3.4387680249250003 1.4718491618450003 3.6640479088149998 O
atom 8.5361476199249982 1.4553209868450003 3.6449963438149999 O
atom 1.7314759885350000 7.2685164409949996 8.3410010211249990 O
atom 6.8288555835349998 7.2519882659949992 8.3219494561249991 O
atom 2.6982631640150001 0.0807652472350000 5.8791666233449993 O
atom 7.7956427590149984 0.0642370722350000 5.8601150583449995 O
atom 2.4536092953649993 8.6505095472849991 1.1822250174750000 O
atom 7.5509888903650006 8.6339813722849996 1.1631734524749999 O
atom 4.9887459517649999 4.4320949234850007 1.1807491940949999 O
atom 10.0861255467649986 4.4155667484850003 1.1616976290950001 O
atom 0.1631265076150000 4.2991798710350002 5.8806424467250000 O
atom 5.2605061026149986 4.2826516960349998 5.8615908817249993 O
atom 0.1039248825850000 7.2254754156649996 1.1188238292949999 O
atom 5.2013044775849995 7.2089472406650001 1.0997722642949999 O
atom 5.0473908630349991 1.5055238998149998 5.7927600148849994 O
atom 10.1447704580349995 1.4889957248149999 5.7737084498849995 O
atom 2.5030313222349996 2.8589398184150001 5.7997138187449995 O
atom 7.6004109172350001 2.8424116434150002 5.7806622537449996 O
atom 2.6482844233849998 5.8720594970650000 1.1118700254350000 O
atom 7.7456640183849990 5.8555313220649996 1.0928184604350000 O
atom 5.0003309167699994 7.2884373858700000 5.9411223012400001 O
atom 10.0977105117699999 7.2719092108700005 5.9220707362400002 O
atom 0.1521678455900000 1.4431473225700002 1.2888031108000000 O
atom 5.2495474405899998 1.4266191475700001 1.2697515457999999 O
atom 2.7056377965900000 2.9197911005700004 1.2764381311000002 O
atom 7.8030173915899992 2.9032629255700004 1.2573865661000001 O
atom 2.4468609657699996 5.8117936078700012 5.9534872809400001 O
atom 7.5442405607699996 5.7952654328700008 5.9344357159399994 O
atom 1.8750663195549997 1.4938514973650001 8.0986301809750003 O
atom 6.9724459145549993 1.4773233223650000 8.0795786159749987 O
atom 3.2932987849649997 7.2455843637149995 3.4008174353049996 O
atom 8.3906783799649975 7.2290561887150000 3.3817658703049998 O
atom 0.7401100194650000 5.8562881072150006 3.4130154034049998 O
atom 5.8374896144649995 5.8397599322150002 3.3939638384049999 O
atom 4.4282550850549995 2.8831477538650003 8.0864322128749997 O
atom 9.5256346800550009 2.8666195788650004 8.0673806478749999 O
atom 4.2927526089699999 0.0104128938500000 8.4107447514999993 O
atom 9.3901322039699995 -0.0061152811500000 8.3916931864999995 O
atom 0.8779785290300000 8.7301937531500009 3.7253860004999999 O
atom 5.9753581240299987 8.7136655781500014 3.7063344355000001 O
atom 3.4126652886300000 4.3720230949499994 3.7241773956799999 O
atom 8.5100448836299982 4.3554949199499990 3.7051258306800001 O
atom 1.7580658493700001 4.3685835520500005 8.4119533563199997 O
atom 6.8554454443699999 4.3520553770500010 8.3929017913199999 O
