#=======================================================
#Created using the Atomic Simulation Environment (ASE)
#=======================================================
lattice_vector 6.5688583200000004 0.0485640500000000 0.0302320100000000 
lattice_vector -3.3257546800000002 5.6646271700000002 0.0225788800000000 
lattice_vector -0.1126812600000000 -0.1685399500000000 24.3685347700000001 
atom -0.0281703150000000 -0.0421349875000000 6.0921336925000000 Al
atom -0.0845109450000000 -0.1264049625000000 18.2764010775000010 In
atom 4.8778106650000010 2.8387426475000002 6.1336551425000003 In
atom 4.8214700350000008 2.7544726724999999 18.3179225274999986 Al
atom 3.2562588450000001 -0.0178529625000000 6.1072496975000004 In
atom 3.1999182150000003 -0.1021229375000000 18.2915170825000004 Ga
atom 1.5933815050000000 2.8144606225000004 6.1185391375000000 Al
atom 1.5370408750000002 2.7301906475000002 18.3028065224999992 Al
atom 0.0000000000000000 0.0000000000000000 0.0000000000000000 Ga
atom -0.0563406300000000 -0.0842699750000000 12.1842673850000001 In
atom 4.9059809800000007 2.8808776350000000 0.0415214500000000 Al
atom 4.8496403500000005 2.7966076600000003 12.2257888349999995 In
atom 3.2844291600000002 0.0242820250000000 0.0151160050000000 In
atom 3.2280885300000000 -0.0599879500000000 12.1993833899999995 Ga
atom 1.6215518200000001 2.8565956100000003 0.0264054450000000 In
atom 1.5652111900000001 2.7723256350000005 12.2106728300000000 Ga
atom -0.0278589533160000 1.8750459409434999 3.0586305514204999 Ga
atom -0.0841995833160000 1.7907759659434999 15.2428979364204995 In
atom -1.6907362933160004 4.7073595259435006 3.0699199914205000 Ga
atom -1.7470769233160004 4.6230895509435008 15.2541873764205000 In
atom 3.2565702066840001 1.8993279659434998 3.0737465564205002 Ga
atom 3.2002295766839999 1.8150579909434998 15.2580139414205007 In
atom 1.5936928666839993 4.7316415509435004 3.0850359964204999 Ga
atom 1.5373522366839993 4.6473715759435006 15.2693033814204995 Ga
atom 1.5930701433160002 0.8972796940565000 9.1520422785795006 In
atom 1.5367295133160002 0.8130097190565000 21.3363096635794989 Al
atom -0.0698071966839998 3.7295932790565001 9.1633317185794994 Al
atom -0.1261478266839998 3.6453233040564998 21.3475991035795012 Al
atom 4.8774993033160010 0.9215617190565000 9.1671582835795000 In
atom 4.8211586733160008 0.8372917440565000 21.3514256685795019 Al
atom 3.2146219633160009 3.7538753040565003 9.1784477235795006 Ga
atom 3.1582813333160007 3.6696053290565001 21.3627151085795006 Ga
atom -0.0370931825730000 1.8612340920409998 5.0556319758220001 O
atom -0.0934338125730000 1.7769641170409998 17.2398993608220010 O
atom -1.6999705225730004 4.6935476770410007 5.0669214158219997 O
atom -1.7563111525730004 4.6092777020410010 17.2511888008219998 O
atom 3.2473359774269999 1.8855161170409998 5.0707479808219995 O
atom 3.1909953474270001 1.8012461420409998 17.2550153658220005 O
atom 1.5844586374269993 4.7178297020410005 5.0820374208220001 O
atom 1.5281180074269993 4.6335597270410007 17.2663048058219992 O
atom 1.6023043725730002 0.9110915429590001 7.1550408541779991 O
atom 1.5459637425730002 0.8268215679590001 19.3393082391779991 O
atom -0.0605729674269998 3.7434051279589999 7.1663302941779996 O
atom -0.1169135974269998 3.6591351529589997 19.3505976791780014 O
atom 4.8867335325730012 0.9353735679590001 7.1701568591779994 O
atom 4.8303929025730010 0.8511035929590001 19.3544242441780021 O
atom 3.2238561925730007 3.7676871529590001 7.1814462991779990 O
atom 3.1675155625730009 3.6834171779589999 19.3657136841780009 O
atom 1.5838359140590001 0.8834678451540000 11.1490437029810003 O
atom 1.5274952840590001 0.7991978701540000 23.3333110879809986 O
atom -0.0790414259409998 3.7157814301539998 11.1603331429810009 O
atom -0.1353820559409998 3.6315114551540000 23.3446005279810009 O
atom 4.8682650740590008 0.9077498701540000 11.1641597079809998 O
atom 4.8119244440590005 0.8234798951540000 23.3484270929809981 O
atom 3.2053877340590007 3.7400634551540000 11.1754491479810003 O
atom 3.1490471040590009 3.6557934801540002 23.3597165329810004 O
atom -0.0186247240590000 1.8888577898459997 1.0616291270189999 O
atom -0.0749653540590000 1.8045878148459997 13.2458965120190015 O
atom -1.6815020640590004 4.7211713748460014 1.0729185670190000 O
atom -1.7378426940590004 4.6369013998460007 13.2571859520190003 O
atom 3.2658044359409999 1.9131398148459997 1.0767451320190000 O
atom 3.2094638059410001 1.8288698398459997 13.2610125170190010 O
atom 1.6029270959409994 4.7454533998460011 1.0880345720189999 O
atom 1.5465864659409994 4.6611834248460005 13.2723019570190015 O
atom -0.0140851575000000 -0.0210674937500000 3.0460668462500000 O
atom -0.0704257875000000 -0.1053374687500000 15.2303342312499996 O
atom 4.8918958225000004 2.8598101412500001 3.0875882962499999 O
atom 4.8355551925000011 2.7755401662499999 15.2718556812500008 O
atom 3.2703440025000003 0.0032145312500000 3.0611828512499999 O
atom 3.2140033725000001 -0.0810554437500000 15.2454502362500008 O
atom 1.6074666625000000 2.8355281162500003 3.0724722912500000 O
atom 1.5511260325000000 2.7512581412500001 15.2567396762499996 O
atom -0.0422554725000000 -0.0632024812500000 9.1382005387500005 O
atom -0.0985961025000000 -0.1474724562500000 21.3224679237500006 O
atom 4.8637255075000008 2.8176751537500002 9.1797219887499999 O
atom 4.8073848775000005 2.7334051787500000 21.3639893737500017 O
atom 3.2421736875000002 -0.0389204562500000 9.1533165437499999 O
atom 3.1858330575000000 -0.1231904312500000 21.3375839287500000 O
atom 1.5792963475000001 2.7933931287500005 9.1646059837500005 O
atom 1.5229557175000001 2.7091231537500002 21.3488733687499987 O
