#=======================================================
#Created using the Atomic Simulation Environment (ASE)
#=======================================================
lattice_vector 6.3850054500000004 0.2000334300000000 0.0557635300000000 
lattice_vector -3.3656516000000001 5.4295088099999997 0.0115631000000000 
lattice_vector -0.2072213500000000 -0.1868470500000000 23.9953991000000002 
atom -0.0518053375000000 -0.0467117625000000 5.9988497750000001 Al
atom -0.1554160125000000 -0.1401352875000000 17.9965493250000002 Al
atom 4.6503743125000003 2.8680760724999996 6.0603948550000002 In
atom 4.5467636375000007 2.7746525474999997 18.0580944049999985 Al
atom 3.1406973875000004 0.0533049525000000 6.0267315400000001 Al
atom 3.0370867125000003 -0.0401185725000000 18.0244310900000002 Al
atom 1.4578715875000001 2.7680593574999999 6.0325130900000001 Al
atom 1.3542609125000002 2.6746358324999999 18.0302126399999985 Al
atom 0.0000000000000000 0.0000000000000000 0.0000000000000000 In
atom -0.1036106750000000 -0.0934235250000000 11.9976995500000001 Al
atom 4.7021796500000006 2.9147878349999998 0.0615450800000000 Al
atom 4.5985689750000009 2.8213643099999999 12.0592446300000002 Al
atom 3.1925027250000002 0.1000167150000000 0.0278817650000000 Al
atom 3.0888920500000001 0.0065931900000000 12.0255813150000002 Al
atom 1.5096769250000002 2.8147711200000001 0.0336633150000000 In
atom 1.4060662500000001 2.7213475950000001 12.0313628650000002 Al
atom -0.0836131887875001 1.8196349762324997 3.0125718610045000 In
atom -0.1872238637875001 1.7262114512324997 15.0102714110044992 Al
atom -1.7664389887875003 4.5343893812325007 3.0183534110045001 Ga
atom -1.8700496637875004 4.4409658562325003 15.0160529610044993 Ga
atom 3.1088895362125002 1.9196516912324997 3.0404536260045001 Ga
atom 3.0052788612125005 1.8262281662324997 15.0381531760044993 Ga
atom 1.4260637362125002 4.6344060962325004 3.0462351760045001 In
atom 1.3224530612125001 4.5409825712325000 15.0439347260044993 Al
atom 1.4896794387875001 0.9017126187674999 9.0187910039954993 Al
atom 1.3860687637875000 0.8082890937674998 21.0164905539954994 In
atom -0.1931463612125000 3.6164670237674996 9.0245725539954993 Al
atom -0.2967570362125000 3.5230434987674997 21.0222721039955012 In
atom 4.6821821637875010 1.0017293337674997 9.0466727689954993 In
atom 4.5785714887875013 0.9083058087674998 21.0443723189954994 Ga
atom 2.9993563637875007 3.7164837387674998 9.0524543189954993 Al
atom 2.8957456887875006 3.6230602137674999 21.0501538689955012 Ga
atom -0.1005949784200001 1.8043228604849999 4.9789948172495002 O
atom -0.2042056534200001 1.7108993354849997 16.9766943672495003 O
atom -1.7834207784200005 4.5190772654850004 4.9847763672495002 O
atom -1.8870314534200003 4.4256537404850000 16.9824759172494986 O
atom 3.0919077465800004 1.9043395754849999 5.0068765822495003 O
atom 2.9882970715800004 1.8109160504849997 17.0045761322495004 O
atom 1.4090819465800000 4.6190939804850002 5.0126581322495003 O
atom 1.3054712715800001 4.5256704554849998 17.0103576822494986 O
atom 1.5066612284200001 0.9170247345149999 7.0523680477504991 O
atom 1.4030505534200000 0.8236012095149998 19.0500675977505018 O
atom -0.1761645715800000 3.6317791395149994 7.0581495977504991 O
atom -0.2797752465800000 3.5383556145149995 19.0558491477505001 O
atom 4.6991639534200011 1.0170414495149998 7.0802498127504991 O
atom 4.5955532784200006 0.9236179245149998 19.0779493627505019 O
atom 3.0163381534200009 3.7317958545149996 7.0860313627504992 O
atom 2.9127274784200008 3.6383723295149997 19.0837309127505002 O
atom 1.4726976491550001 0.8864005030199998 10.9852139602405003 O
atom 1.3690869741550000 0.7929769780199999 22.9829135102405004 O
atom -0.2101281508450000 3.6011549080199994 10.9909955102405004 O
atom -0.3137388258450000 3.5077313830199994 22.9886950602404987 O
atom 4.6652003741550008 0.9864172180199998 11.0130957252405004 O
atom 4.5615896991550011 0.8929936930199999 23.0107952752405005 O
atom 2.9823745741550005 3.7011716230199996 11.0188772752405004 O
atom 2.8787638991550009 3.6077480980199996 23.0165768252404987 O
atom -0.0666313991550001 1.8349470919799997 1.0461489047595001 O
atom -0.1702420741550001 1.7415235669799998 13.0438484547595017 O
atom -1.7494571991550003 4.5497014969800000 1.0519304547594999 O
atom -1.8530678741550004 4.4562779719800005 13.0496300047595017 O
atom 3.1258713258450004 1.9349638069799997 1.0740306697594999 O
atom 3.0222606508450003 1.8415402819799997 13.0717302197595000 O
atom 1.4430455258450001 4.6497182119799998 1.0798122197594999 O
atom 1.3394348508450000 4.5562946869800003 13.0775117697595000 O
atom -0.0259026687500000 -0.0233558812500000 2.9994248875000000 O
atom -0.1295133437500000 -0.1167794062500000 14.9971244375000001 O
atom 4.6762769812500009 2.8914319537499997 3.0609699675000002 O
atom 4.5726663062500004 2.7980084287499998 15.0586695175000003 O
atom 3.1666000562500001 0.0766608337500000 3.0273066525000001 O
atom 3.0629893812500004 -0.0167626912500000 15.0250062025000002 O
atom 1.4837742562500003 2.7914152387500000 3.0330882025000001 O
atom 1.3801635812500002 2.6979917137500000 15.0307877525000002 O
atom -0.0777080062500000 -0.0700676437500000 8.9982746625000001 O
atom -0.1813186812500000 -0.1634911687500000 20.9959742125000020 O
atom 4.6244716437500006 2.8447201912500000 9.0598197425000002 O
atom 4.5208609687500010 2.7512966662500000 21.0575192925000003 O
atom 3.1147947187500002 0.0299490712500000 9.0261564275000001 O
atom 3.0111840437500001 -0.0634744537500000 21.0238559774999985 O
atom 1.4319689187500002 2.7447034762500002 9.0319379775000002 O
atom 1.3283582437500001 2.6512799512500003 21.0296375275000003 O
