#=======================================================
#Created using the Atomic Simulation Environment (ASE)
#=======================================================
lattice_vector 10.4885756400000005 -0.0424898700000000 -0.0531336300000000 
lattice_vector 0.0361244600000000 8.9753291500000003 -0.0260282200000000 
lattice_vector 0.0486485900000000 0.0276562900000000 9.5975033799999991 
atom 1.7008677825300000 7.6506531210599995 6.6590209943599987 In
atom 6.9451556025300007 7.6294081860600000 6.6324541793599989 Al
atom 3.6230363369300003 1.3281558172000001 1.8685519923599998 In
atom 8.8673241569299996 1.3069108822000000 1.8419851773600000 In
atom 1.0081895678500001 3.1517947729999998 1.8765776994199999 In
atom 6.2524773878500000 3.1305498379999999 1.8500108844199998 Ga
atom 4.3157145516100002 5.8270141652600005 6.6509952872999989 Ga
atom 9.5600023716100004 5.8057692302600010 6.6244284722999991 Al
atom 0.9624974144600000 5.9019637373350005 -0.0218820286450000 Ga
atom 6.2067852344600007 5.8807188023350010 -0.0484488436450000 In
atom 4.3422391605400001 3.0659486226650006 4.7680386836449999 In
atom 9.5865269805400004 3.0447036876650007 4.7414718686449993 Ga
atom 1.7134483499000002 1.4251105265649999 4.7861112836249999 In
atom 6.9577361699000004 1.4038655915650000 4.7595444686249992 Ga
atom 3.6399368151000004 7.5704581234350004 9.5575487513749984 Ga
atom 8.8842246351000025 7.5492131884350000 9.5309819363749995 Al
atom 0.9307240289700002 0.2933193591300000 9.5826618050999990 Ga
atom 6.1750118489699997 0.2720744241300000 9.5560949900999983 Al
atom 4.4225638388499995 8.7021939782900013 4.7418032231399998 In
atom 9.6668516588500015 8.6809490432900009 4.7152364081400000 Ga
atom 1.7845251664500001 4.7636716197900011 4.7665390474399993 Ga
atom 7.0288129864500002 4.7424266847900007 4.7399722324399995 Ga
atom 3.5687627013700007 4.2318417176300001 9.5579259807999986 Ga
atom 8.8130505213700001 4.2105967826299997 9.5313591657999996 Al
atom 3.6362951372500003 1.4163393963049999 7.5309504612449993 In
atom 8.8805829572500006 1.3950944613050000 7.5043836462449995 Al
atom 1.6963657284100002 7.5674476741549999 2.7241731338749995 In
atom 6.9406535484100003 7.5462027391549995 2.6976063188749997 Ga
atom 4.3117904888499998 5.8874139847550007 2.7157309752949996 Ga
atom 9.5560783088499992 5.8661690497550012 2.6891641602949994 Al
atom 1.0208703768100000 3.0963730857050002 7.5393926198249996 Ga
atom 6.2651581968100007 3.0751281507050003 7.5128258048249998 Ga
atom 4.4151250573899992 6.0115802172050001 8.5311337495249990 O
atom 9.6594128773900021 5.9903352822049998 8.5045669345250001 O
atom 0.9278493093500002 2.9780699867350000 3.7586605621549998 O
atom 6.1721371293500011 2.9568250517350001 3.7320937471550000 O
atom 3.5441410568300005 1.5134441969350003 3.7495937262949997 O
atom 8.7884288768300003 1.4921992619350002 3.7230269112949999 O
atom 1.7988333099100000 7.4762060070050005 8.5402005853849996 O
atom 7.0431211299099994 7.4549610720050001 8.5136337703849989 O
atom 2.7841761887500001 0.0870201778850000 6.0226477941649996 O
atom 8.0284640087499994 0.0657752428850000 5.9960809791649998 O
atom 2.5331117224699997 8.8880275049350015 1.1996647328749999 O
atom 7.7773995424700004 8.8667825699350011 1.1730979178749998 O
atom 5.1378436427500001 4.5512963871350003 1.1989269274149998 O
atom 10.3821314627499994 4.5300514521349999 1.1723601124149998 O
atom 0.1794442684700000 4.4237512956850003 6.0233855996249996 O
atom 5.4237320884699995 4.4025063606849999 5.9968187846249998 O
atom 0.1144257251100000 7.4256249441149995 1.1393740688149998 O
atom 5.3587135451099996 7.4043800091150000 1.1128072538149998 O
atom 5.2020838086700003 1.5489802380650000 5.9293784041449991 O
atom 10.4463716286700006 1.5277353030650000 5.9028115891449993 O
atom 2.5855030655100002 2.9418033946650004 5.9386534657649994 O
atom 7.8297908855100014 2.9205584596650005 5.9120866507649996 O
atom 2.7310064682699999 6.0328017875150008 1.1300990071949999 O
atom 7.9752942882699998 6.0115568525150005 1.1035321921949999 O
atom 5.1586494855599998 7.4913944764500000 6.0756506485599999 O
atom 10.4029373055600001 7.4701495414499997 6.0490838335599992 O
atom 0.1595141002800000 1.4841510195900001 1.3194169393199999 O
atom 5.4038019202800003 1.4629060845899999 1.2928501243199999 O
atom 2.7877991684800003 2.9993345075900000 1.3017087344200000 O
atom 8.0320869884800015 2.9780895725900001 1.2751419194200000 O
atom 2.5303644173600000 5.9762109884500010 6.0933588534599998 O
atom 7.7746522373599998 5.9549660534500006 6.0667920384599991 O
atom 1.9414587401600001 1.5420868811050001 8.2974225094649992 O
atom 7.1857465601600010 1.5208419461050000 8.2708556944649985 O
atom 3.3988886027200005 7.4460698831750003 3.4741066196949997 O
atom 8.6431764227200016 7.4248249481749999 3.4475398046949994 O
atom 0.7709647791200001 6.0206396866750005 3.4915545423949994 O
atom 6.0152525991200001 5.9993947516750001 3.4649877273949996 O
atom 4.5693825637600005 2.9675170776050002 8.2799745867649985 O
atom 9.8136703837599999 2.9462721426050003 8.2534077717649996 O
atom 4.4280444729800008 0.0161052244900000 8.6155171564399993 O
atom 9.6723322929800002 -0.0051397105100000 8.5889503414399986 O
atom 0.9156109740200001 8.9739321675100019 3.8086422025599997 O
atom 6.1598987940199992 8.9526872325100015 3.7820753875599999 O
atom 3.5197649029400004 4.4935957833100000 3.8083208486199998 O
atom 8.7640527229399989 4.4723508483100005 3.7817540336200000 O
atom 1.8238905440600002 4.4964416086899996 8.6158385103799997 O
atom 7.0681783640600013 4.4751966736900002 8.5892716953799990 O
