#=======================================================
#Created using the Atomic Simulation Environment (ASE)
#=======================================================
lattice_vector 6.5715946699999996 0.0890268700000000 0.0328617400000000 
lattice_vector -3.3622018699999998 5.6467039600000000 0.0251343300000000 
lattice_vector -0.1217192300000000 -0.1872977800000000 24.3615216699999984 
atom -0.0304298075000000 -0.0468244450000000 6.0903804174999996 In
atom -0.0912894225000000 -0.1404733350000000 18.2711412524999979 In
atom 4.8600639274999997 2.8655544050000001 6.1358093224999992 Ga
atom 4.7992043124999997 2.7719055150000003 18.3165701574999993 In
atom 3.2553675274999998 -0.0023110100000000 6.1068112874999994 In
atom 3.1945079124999998 -0.0959599000000000 18.2875721224999985 Ga
atom 1.5742665924999999 2.8210409699999999 6.1193784524999995 Al
atom 1.5134069774999999 2.7273920800000000 18.3001392874999986 In
atom 0.0000000000000000 0.0000000000000000 0.0000000000000000 Al
atom -0.0608596150000000 -0.0936488900000000 12.1807608349999992 In
atom 4.8904937349999997 2.9123788500000001 0.0454289050000000 Al
atom 4.8296341199999997 2.8187299600000002 12.2261897399999988 Ga
atom 3.2857973349999998 0.0445134350000000 0.0164308700000000 Ga
atom 3.2249377199999998 -0.0491354550000000 12.1971917049999998 Al
atom 1.6046963999999999 2.8678654149999998 0.0289980350000000 Al
atom 1.5438367849999999 2.7742165249999999 12.2097588699999999 Al
atom -0.0406805352655002 1.8734705352534999 3.0590438899099999 Ga
atom -0.1015401502655002 1.7798216452534998 15.2398047249099982 In
atom -1.7217814702655003 4.6968225152535004 3.0716110549100000 Al
atom -1.7826410852655004 4.6031736252535005 15.2523718899099983 In
atom 3.2451167997344990 1.9179839702535000 3.0754747599099996 In
atom 3.1842571847344989 1.8243350802534999 15.2562355949099988 In
atom 1.5640158647344991 4.7413359502535002 3.0880419249099997 Ga
atom 1.5031562497344990 4.6476870602535003 15.2688027599099989 Al
atom 1.5845173202654996 0.9007459897464999 9.1507149800899992 Al
atom 1.5236577052654996 0.8070970997464999 21.3314758150899983 In
atom -0.0965836147345000 3.7240979697464995 9.1632821450899993 In
atom -0.1574432297345000 3.6304490797464997 21.3440429800899985 Al
atom 4.8703146552655010 0.9452594247464999 9.1671458500899998 Ga
atom 4.8094550402655010 0.8516105347464999 21.3479066850899990 In
atom 3.1892137202655007 3.7686114047464998 9.1797130150899999 Al
atom 3.1283541052655006 3.6749625147464999 21.3604738500899991 Ga
atom -0.0506554261640002 1.8581214821824998 5.0554705907664994 O
atom -0.1115150411640002 1.7644725921825000 17.2362314257664977 O
atom -1.7317563611640003 4.6814734621825007 5.0680377557664995 O
atom -1.7926159761640004 4.5878245721825008 17.2487985907664978 O
atom 3.2351419088359989 1.9026349171824999 5.0719014607664992 O
atom 3.1742822938359989 1.8089860271825000 17.2526622957664983 O
atom 1.5540409738359990 4.7259868971825005 5.0844686257664993 O
atom 1.4931813588359990 4.6323380071825007 17.2652294607664984 O
atom 1.5944922111639996 0.9160950428174999 7.1542882792334987 O
atom 1.5336325961639996 0.8224461528174999 19.3350491142334988 O
atom -0.0866087238360000 3.7394470228174996 7.1668554442334989 O
atom -0.1474683388360000 3.6457981328174998 19.3476162792334989 O
atom 4.8802895461640006 0.9606084778174999 7.1707191492334994 O
atom 4.8194299311640005 0.8669595878174999 19.3514799842334995 O
atom 3.1991886111640007 3.7839604578174999 7.1832863142334986 O
atom 3.1383289961640006 3.6903115678175000 19.3640471492334996 O
atom 1.5745424293669996 0.8853969366754999 11.1471416809465005 O
atom 1.5136828143669996 0.7917480466754999 23.3279025159464979 O
atom -0.1065585056330000 3.7087489166754994 11.1597088459465006 O
atom -0.1674181206330000 3.6151000266754996 23.3404696809464980 O
atom 4.8603397643670005 0.9299103716754999 11.1635725509464994 O
atom 4.7994801493670005 0.8362614816755000 23.3443333859464985 O
atom 3.1792388293670006 3.7532623516754997 11.1761397159464995 O
atom 3.1183792143670006 3.6596134616754998 23.3569005509464986 O
atom -0.0307056443670002 1.8888195883244998 1.0626171890534999 O
atom -0.0915652593670002 1.7951706983244999 13.2433780240535004 O
atom -1.7118065793670003 4.7121715683245009 1.0751843540534998 O
atom -1.7726661943670003 4.6185226783245001 13.2559451890535005 O
atom 3.2550916906329990 1.9333330233244999 1.0790480590534999 O
atom 3.1942320756329989 1.8396841333245000 13.2598088940534993 O
atom 1.5739907556329991 4.7566850033245007 1.0916152240535000 O
atom 1.5131311406329990 4.6630361133245000 13.2723760590534994 O
atom -0.0152149037500000 -0.0234122225000000 3.0451902087499998 O
atom -0.0760745187500000 -0.1170611125000000 15.2259510437499994 O
atom 4.8752788312500002 2.8889666274999999 3.0906191137499999 O
atom 4.8144192162500001 2.7953177375000000 15.2713799487499990 O
atom 3.2705824312499998 0.0211012125000000 3.0616210787500000 O
atom 3.2097228162499998 -0.0725476775000000 15.2423819137499983 O
atom 1.5894814962499999 2.8444531924999996 3.0741882437499997 O
atom 1.5286218812499999 2.7508043024999997 15.2549490787499984 O
atom -0.0456447112500000 -0.0702366675000000 9.1355706262499989 O
atom -0.1065043262500000 -0.1638855575000000 21.3163314612499981 O
atom 4.8448490237500001 2.8421421824999999 9.1809995312499986 O
atom 4.7839894087500001 2.7484932925000001 21.3617603662499995 O
atom 3.2401526237499998 -0.0257232325000000 9.1520014962499996 O
atom 3.1792930087499998 -0.1193721225000000 21.3327623312499988 O
atom 1.5590516887499999 2.7976287474999997 9.1645686612499997 O
atom 1.4981920737499999 2.7039798574999998 21.3453294962499989 O
