#=======================================================
#Created using the Atomic Simulation Environment (ASE)
#=======================================================
lattice_vector 24.3767098599999983 0.0000102000000000 -0.0066171700000000 
lattice_vector -0.0000190100000000 6.1581708500000003 0.0000379700000000 
lattice_vector -1.4959011700000000 -0.0000032500000000 5.8160037200000003 
atom 10.7725548915200005 0.0000039696500000 1.1892732588349999 Ga
atom 10.7725453865200009 3.0790893946500000 1.1892922438350000 Ga
atom 22.9609098215199978 0.0000090696500000 1.1859646738350000 Al
atom 22.9609003165199965 3.0790944946500001 1.1859836588349999 Al
atom -0.0801011315200002 -0.0000021196500000 4.6234218761650006 In
atom -0.0801106365200002 3.0790833053500002 4.6234408611650002 Al
atom 12.1082537984799981 0.0000029803500000 4.6201132911650005 Ga
atom 12.1082442934799985 3.0790884053499998 4.6201322761650001 Al
atom 4.6783726740200002 1.5395441321500001 1.1909370438350000 In
atom 4.6783631690199998 4.6186295571500002 1.1909560288350001 Al
atom 16.8667276040199958 1.5395492321499999 1.1876284588349999 Ga
atom 16.8667180990199981 4.6186346571500003 1.1876474438350000 Ga
atom 6.0140715809799996 1.5395431428500002 4.6217770761650003 Al
atom 6.0140620759799992 4.6186285678500001 4.6217960611650009 Ga
atom 18.2024265109799970 1.5395482428500000 4.6184684911650002 Al
atom 18.2024170059799992 4.6186336678500002 4.6184874761650008 Ga
atom 9.2242135410099984 1.5395447721000002 3.9870055244350007 Ga
atom 9.2242040360099988 4.6186301970999999 3.9870245094350008 Al
atom 21.4125684710099975 1.5395498721000000 3.9836969394350006 In
atom 21.4125589660099998 4.6186352971000000 3.9837159244350007 Al
atom 1.4682307139899999 1.5395425029000001 1.8257085955650001 In
atom 1.4682212089900000 4.6186279278999995 1.8257275805650002 Al
atom 13.6565856439899989 1.5395476028999999 1.8224000105650000 Ga
atom 13.6565761389899993 4.6186330278999996 1.8224189955650001 In
atom 3.1300408285099994 -0.0000004904000000 3.9886503244350004 Ga
atom 3.1300313235099990 3.0790849346000000 3.9886693094350005 Al
atom 15.3183957585099986 0.0000046096000000 3.9853417394350004 In
atom 15.3183862535099973 3.0790900346000001 3.9853607244350004 Al
atom 7.5624129314899999 0.0000023404000000 1.8240448105650000 Al
atom 7.5624034264900004 3.0790877654000002 1.8240637955650001 Al
atom 19.7507678614899973 0.0000074404000000 1.8207362255650001 In
atom 19.7507583564899960 3.0790928654000003 1.8207552105650000 Al
atom 9.4260607158199985 0.0000027974500000 2.5388574258450003 O
atom 9.4260512108199990 3.0790882224500002 2.5388764108449999 O
atom 21.6144156458199994 0.0000078974500000 2.5355488408450002 O
atom 21.6144061408199981 3.0790933224500003 2.5355678258450003 O
atom 1.2663930441799998 -0.0000009474500000 3.2738377091549999 O
atom 1.2663835391799998 3.0790844775500004 3.2738566941550000 O
atom 13.4547479741800000 0.0000041525500000 3.2705291241549999 O
atom 13.4547384691800005 3.0790895775500000 3.2705481091549999 O
atom 3.3318784983199996 1.5395429599500001 2.5405212108450002 O
atom 3.3318689933199996 4.6186283849500001 2.5405401958450002 O
atom 15.5202334283199956 1.5395480599500000 2.5372126258450001 O
atom 15.5202239233199979 4.6186334849500001 2.5372316108450002 O
atom 7.3605657566799989 1.5395443150500001 3.2721929091549997 O
atom 7.3605562516799994 4.6186297400499994 3.2722118941549998 O
atom 19.5489206866799989 1.5395494150500002 3.2688843241550001 O
atom 19.5489111816800012 4.6186348400499995 3.2689033091549997 O
atom 8.8459243252499977 0.0000013660000000 5.1734806423249999 O
atom 8.8459148202499982 3.0790867910000004 5.1734996273250005 O
atom 21.0342792552499986 0.0000064660000000 5.1701720573250007 O
atom 21.0342697502499973 3.0790918910000000 5.1701910423250004 O
atom 1.8465294347499999 0.0000004840000000 0.6392144926750001 O
atom 1.8465199297499999 3.0790859090000002 0.6392334776750001 O
atom 14.0348843647500008 0.0000055840000000 0.6359059076750000 O
atom 14.0348748597500013 3.0790910090000003 0.6359248926750001 O
atom 2.7517421077499997 1.5395415285000000 5.1751444273250007 O
atom 2.7517326027499993 4.6186269534999997 5.1751634123250003 O
atom 14.9400970377499966 1.5395466285000001 5.1718358423250006 O
atom 14.9400875327499989 4.6186320534999998 5.1718548273250002 O
atom 7.9407021472499997 1.5395457465000000 0.6375696926750001 O
atom 7.9406926422500002 4.6186311714999997 0.6375886776750000 O
atom 20.1290570772499997 1.5395508465000001 0.6342611076750000 O
atom 20.1290475722500020 4.6186362714999998 0.6342800926750001 O
atom -1.0627059020900000 1.5395403181500000 4.3212870221199999 O
atom -1.0627154070900000 4.6186257431500000 4.3213060071200005 O
atom 11.1256490279099989 1.5395454181500001 4.3179784371199998 O
atom 11.1256395229099994 4.6186308431500001 4.3179974221200004 O
atom 11.7551501570899983 1.5395469568500000 1.4914270978800002 O
atom 11.7551406520899988 4.6186323818500004 1.4914460828800000 O
atom 23.9435050870899957 1.5395520568500001 1.4881185128800001 O
atom 23.9434955820899980 4.6186374818500004 1.4881374978800002 O
atom 5.0314763154099991 0.0000001556500000 4.3196232371200001 O
atom 5.0314668104099987 3.0790855806500002 4.3196422221200006 O
atom 17.2198312454099991 0.0000052556500000 4.3163146521200000 O
atom 17.2198217404099978 3.0790906806500002 4.3163336371200005 O
atom 5.6609774445900003 0.0000016943500000 1.4930718978800002 O
atom 5.6609679395899999 3.0790871193500005 1.4930908828800000 O
atom 17.8493323745899986 0.0000067943500000 1.4897633128800001 O
atom 17.8493228695899973 3.0790922193500001 1.4897822978800002 O
