#=======================================================
#Created using the Atomic Simulation Environment (ASE)
#=======================================================
lattice_vector 24.7318072999999998 0.0000121800000000 -0.1005487900000000 
lattice_vector -0.0000055100000000 6.5713195600000001 -0.0000276900000000 
lattice_vector -1.7460293400000000 -0.0000102200000000 6.3800968400000002 
atom 10.8826704031499997 0.0000034407100000 1.2622204271449999 In
atom 10.8826676481499991 3.2856632207100001 1.2622065821449999 Ga
atom 23.2485740531499978 0.0000095307100000 1.2119460321450000 In
atom 23.2485712981499972 3.2856693107099999 1.2119321871450000 Ga
atom -0.2627960931500002 -0.0000075707100000 5.0676020178550001 Ga
atom -0.2627988481500001 3.2856522092900002 5.0675881728550003 In
atom 12.1031075568500004 -0.0000014807100000 5.0173276228550003 Ga
atom 12.1031048018499998 3.2856582992900001 5.0173137778550005 In
atom 4.6997172006499994 1.6428302857100001 1.2873507021449999 Ga
atom 4.6997144456499997 4.9284900657100001 1.2873368571449999 Ga
atom 17.0656208506499993 1.6428363757100002 1.2370763071449999 In
atom 17.0656180956499988 4.9284961557100004 1.2370624621449999 Ga
atom 5.9201543543499993 1.6428253642900001 5.0424578978550008 Ga
atom 5.9201515993499996 4.9284851442900006 5.0424440528550001 Ga
atom 18.2860580043500001 1.6428314542900002 4.9921835028550001 In
atom 18.2860552493499995 4.9284912342900000 4.9921696578550003 In
atom 9.2019474649099990 1.6428280007700000 4.3344587435450004 In
atom 9.2019447099099985 4.9284877807700003 4.3344448985450006 In
atom 21.5678511149099990 1.6428340907699999 4.2841843485450006 In
atom 21.5678483599099984 4.9284938707700006 4.2841705035450008 In
atom 1.4179240900900001 1.6428276492300000 1.9953498564550001 In
atom 1.4179213350900002 4.9284874292300005 1.9953360114550001 In
atom 13.7838277400899987 1.6428337392300001 1.9450754614550001 In
atom 13.7838249850899981 4.9284935192299999 1.9450616164550001 In
atom 3.0189970174100003 -0.0000049342300000 4.3596028635450006 In
atom 3.0189942624100006 3.2856548457699999 4.3595890185450008 In
atom 15.3849006674099975 0.0000011557700000 4.3093284685450008 In
atom 15.3848979124099969 3.2856609357699997 4.3093146235450002 In
atom 7.6008772925899999 0.0000008042300000 1.9702195814550001 In
atom 7.6008745375899993 3.2856605842300000 1.9702057364550001 In
atom 19.9667809425900025 0.0000068942300000 1.9199451864550001 In
atom 19.9667781875900019 3.2856666742300003 1.9199313414550001 In
atom 9.4635874969699980 0.0000005702900000 2.7465253944149999 O
atom 9.4635847419699974 3.2856603502900001 2.7465115494150001 O
atom 21.8294911469699997 0.0000066602900000 2.6962509994150001 O
atom 21.8294883919699991 3.2856664402900000 2.6962371544149999 O
atom 1.1562868130300001 -0.0000047002900000 3.5832970505849997 O
atom 1.1562840580300000 3.2856550797100001 3.5832832055849999 O
atom 13.5221904630300021 0.0000013897100000 3.5330226555849999 O
atom 13.5221877080300015 3.2856611697100000 3.5330088105849997 O
atom 3.2806342944700000 1.6428274152900000 2.7716556694150003 O
atom 3.2806315394700003 4.9284871952899998 2.7716418244150001 O
atom 15.6465379444700012 1.6428335052900001 2.7213812744150001 O
atom 15.6465351894700007 4.9284932852900001 2.7213674294149999 O
atom 7.3392372605300009 1.6428282347100001 3.5581529305849999 O
atom 7.3392345055300003 4.9284880147100001 3.5581390855849997 O
atom 19.7051409105300017 1.6428343247099999 3.5078785355849997 O
atom 19.7051381555300011 4.9284941047100004 3.5078646905849999 O
atom 8.7715634351500000 -0.0000040106500000 5.6363070677750002 O
atom 8.7715606801499995 3.2856557693500004 5.6362932227750004 O
atom 21.1374670851499964 0.0000020793500000 5.5860326727750005 O
atom 21.1374643301499958 3.2856618593500002 5.5860188277750007 O
atom 1.8483108748499999 -0.0000001193500000 0.6935153772250000 O
atom 1.8483081198499998 3.2856596606499999 0.6935015322250000 O
atom 14.2142145248500000 0.0000059706500000 0.6432409822250000 O
atom 14.2142117698499995 3.2856657506499998 0.6432271372250000 O
atom 2.5886102326500002 1.6428228343500000 5.6614373427750007 O
atom 2.5886074776500005 4.9284826143500000 5.6614234977750000 O
atom 14.9545138826499997 1.6428289243499998 5.6111629477750000 O
atom 14.9545111276499991 4.9284887043500003 5.6111491027750002 O
atom 8.0312613223499998 1.6428328156500001 0.6683712572250000 O
atom 8.0312585673499992 4.9284925956500008 0.6683574122250000 O
atom 20.3971649723500050 1.6428389056500001 0.6180968622250000 O
atom 20.3971622173500045 4.9284986856500002 0.6180830172250000 O
atom -1.2478375625200000 1.6428223209000001 4.7402039320400000 O
atom -1.2478403175199999 4.9284821009000002 4.7401900870400002 O
atom 11.1180660874800008 1.6428284109000002 4.6899295370400003 O
atom 11.1180633324800002 4.9284881908999996 4.6899156920400005 O
atom 11.8677091175199987 1.6428333291000001 1.5896046679600000 O
atom 11.8677063625199981 4.9284931091000006 1.5895908229600002 O
atom 24.2336127675200004 1.6428394191000000 1.5393302729600000 O
atom 24.2336100125199998 4.9284991991000009 1.5393164279600000 O
atom 4.9351156399800002 -0.0000045241000000 4.7150736570400005 O
atom 4.9351128849800006 3.2856552559000001 4.7150598120399998 O
atom 17.3010192899800010 0.0000015659000000 4.6647992620399998 O
atom 17.3010165349800005 3.2856613458999999 4.6647854170400000 O
atom 5.6847586700199999 0.0000003941000000 1.6147487879600000 O
atom 5.6847559150200002 3.2856601740999998 1.6147349429600002 O
atom 18.0506623200199989 0.0000064841000000 1.5644743929600000 O
atom 18.0506595650199984 3.2856662641000001 1.5644605479600000 O
