#=======================================================
#Created using the Atomic Simulation Environment (ASE)
#=======================================================
lattice_vector 10.5385176099999995 0.0348277600000000 -0.1244552600000000 
lattice_vector 5.2595149399999999 3.1054577100000000 -0.0351695500000000 
lattice_vector -0.1668279600000000 -0.1305068800000000 15.0524622299999997 
atom 8.6222211787610341 -0.0960459596810696 14.3215635373233088 Ga
atom 5.2692588049999998 0.0174138800000000 -0.0622276300000000 Ga
atom 9.6276312512389648 1.5541962146810697 2.4081888064266899 In
atom 4.3583724462389650 1.5367823346810696 2.4704164364266896 Ga
atom 5.2066983200000001 -0.0315262000000000 5.5824457062499997 Ga
atom 1.7077614812389652 -0.0322598803189304 4.3695589901766905 Ga
atom -0.0834139800000000 -0.0652534400000000 7.5262311149999999 In
atom 8.7264886537610344 -0.0144791596810696 4.9137746435733094 In
atom 2.5463434899999999 1.4874754150000000 7.5086463399999994 Ga
atom 7.8156022949999997 1.5048892950000001 7.4464187099999997 In
atom 8.6639281687610339 -0.0634192396810696 10.5584479798233097 In
atom 5.1649913299999994 -0.0641529200000000 9.3455612637499996 Ga
atom 3.3738158687610342 -0.0971464796810696 12.5022333885733090 Ga
atom 1.6452009962389653 -0.0811999603189304 10.0142323264266899 Ga
atom 6.0035733387610337 1.4555823753189303 12.4846486135733095 In
atom 11.2728321437610344 1.4729962553189304 12.4224209835733088 Ga
atom 3.5689156108000000 0.0007483536000000 1.2371445011500000 O
atom 1.6043281460389651 -0.1131741459189304 13.7020855727766904 O
atom 6.0934827819999997 1.4913680544000001 1.2202631171500000 O
atom 11.3623518323999981 1.6323036876000001 1.1591178103500002 O
atom 8.7673615039610340 0.0174950259189304 1.2259213972233101 O
atom 6.8027740392000000 -0.0964274736000000 13.6908624688499998 O
atom 9.5377218080000006 1.5184105355999999 13.6725743028500002 O
atom 4.2688527575999995 1.3774749023999999 13.7337196096500005 O
atom 7.0261454595610333 -0.0311446860810696 6.2131467747233105 O
atom 5.2283859547999993 -0.0145603056000000 3.6256256163499998 O
atom 9.5507126307610335 1.4594750147189304 6.1962653907233101 O
atom 4.2810640711610342 1.5655828879189306 6.2595753439233102 O
atom 1.6860738464389653 -0.0492257747189304 6.3263790800766904 O
atom 10.4268318479610329 0.0021863667189304 3.6144025124233101 O
atom 13.1617796167610326 1.6170243759189304 3.5961143464233101 O
atom 7.8929105663610342 1.4760887427189302 3.6572596532233099 O
atom -0.0551421979610345 -0.0978654867189304 11.3136044575766892 O
atom 8.6856158035610349 -0.0464533452810696 8.6016278899233090 O
atom 2.4694249732389650 1.3927542140810696 11.2967230735766897 O
atom 7.7382940236389661 1.5336898472810698 11.2355777667766894 O
atom 5.1433036952000002 -0.0811188144000000 11.3023813536500004 O
atom 3.3455441904389649 -0.0645344339189304 8.7148601952766906 O
atom 6.0804919592389650 1.5503035752810697 8.6965720292766910 O
atom 11.3501405188389626 1.4441957020810694 8.6332620760766901 O
