#=======================================================
#Created using the Atomic Simulation Environment (ASE)
#=======================================================
lattice_vector 10.3918330300000008 -0.0297207800000000 -0.0442422700000000 
lattice_vector 0.0252203900000000 8.8894691600000009 -0.0227215300000000 
lattice_vector 0.0404438500000000 0.0237487500000000 9.5167057300000000 
atom 1.6707778680200001 7.5768546922300004 6.6069060776599997 In
atom 6.8666943830200013 7.5619943022300005 6.5847849426599998 Al
atom 3.5865158388800000 1.3189854602700000 1.8561861799600001 In
atom 8.7824323538800009 1.3041250702700000 1.8340650449600000 In
atom 0.9936521001600001 3.1220884255899999 1.8626569984000001 Ga
atom 6.1895686151599998 3.1072280355899999 1.8405358634000000 In
atom 4.2636416067400011 5.7737517269100005 6.6004352592199993 In
atom 9.4595581217400007 5.7588913369100005 6.5783141242199994 Al
atom 0.9466640728050000 5.8466106974700010 -0.0189104499050000 Ga
atom 6.1425805878050008 5.8317503074700001 -0.0410315849050000 In
atom 4.2946947571950007 3.0398724475300005 4.7324206499050003 Al
atom 9.4906112721949984 3.0250120575300006 4.7102995149049995 Al
atom 1.6920959479350002 1.4116403170900003 4.7476619789249996 Al
atom 6.8880124629350004 1.3967799270900003 4.7255408439249997 Al
atom 3.5897067320650002 7.4985915779100010 9.4825539510749994 Al
atom 8.7856232470650024 7.4837311879100010 9.4604328160750004 In
atom 0.9140739923700001 0.2879125305300000 9.5027910276899998 In
atom 6.1099905073700000 0.2730521405300000 9.4806698926900008 In
atom 4.3676477999300003 8.6222718669700011 4.7083914908500004 Al
atom 9.5635643149300016 8.6074114769700003 4.6862703558499996 In
atom 1.7585925708300001 4.7183356315700014 4.7294495315500003 Al
atom 6.9545090858300007 4.7034752415700014 4.7073283965500003 Ga
atom 3.5231292214700005 4.1918487659299997 9.4817329869900000 Al
atom 8.7190457364700009 4.1769883759299997 9.4596118519899992 Ga
atom 3.5949917239550007 1.4041575572200002 7.4709271518250002 Al
atom 8.7909082389549997 1.3892971672200001 7.4488060168250003 In
atom 1.6695818759450003 7.4959573702800002 2.7051721371949999 Ga
atom 6.8654983909450005 7.4810969802800003 2.6830510021949996 Al
atom 4.2628491409049998 5.8350859115200002 2.6983377742749997 Al
atom 9.4587656559050011 5.8202255215200003 2.6762166392749998 Al
atom 1.0017244589950001 3.0650290159800004 7.4777615147450005 Al
atom 6.1976409739950000 3.0501686259800005 7.4556403797450006 Al
atom 4.3604035898950002 5.9559432384800006 8.4648790924050008 O
atom 9.5563201048950006 5.9410828484800007 8.4427579574050000 O
atom 0.9127441062050002 2.9492064240200002 3.7287618113750001 O
atom 6.1086606212050008 2.9343460340200003 3.7066406763750002 O
atom 3.5066166605250007 1.5016822251000002 3.7213821317350000 O
atom 8.7025331755250015 1.4868218351000000 3.6992609967350001 O
atom 1.7665310355750001 7.4034674373999998 8.4722587720450004 O
atom 6.9624475505749999 7.3886070473999998 8.4501376370449997 O
atom 2.7535223355350005 0.0871414814400000 5.9741898145250003 O
atom 7.9494388505350004 0.0722810914400000 5.9520686795250004 O
atom 2.4982710077650001 8.8054688410600015 1.1946304638150000 O
atom 7.6941875227650014 8.7906084510600007 1.1725093288149999 O
atom 5.0840730372850000 4.5133145109400008 1.1945216737750000 O
atom 10.2799895522850022 4.4984541209400009 1.1724005387750001 O
atom 0.1677203060150000 4.3792958115599996 5.9742986045649999 O
atom 5.3636368210150005 4.3644354215599996 5.9521774695650000 O
atom 0.1036897161050000 7.3542416882200001 1.1323988709949999 O
atom 5.2996062311049998 7.3393812982200002 1.1102777359950000 O
atom 5.1474565255950004 1.5379886542799999 5.8841541156649999 O
atom 10.3433730405950008 1.5231282642799999 5.8620329806650000 O
atom 2.5533822081549999 2.9143970999200004 5.8917155675449999 O
atom 7.7492987231550012 2.8995367099200005 5.8695944325450000 O
atom 2.6977640335450004 5.9778332425800009 1.1248374191149999 O
atom 7.8936805485450003 5.9629728525800010 1.1027162841150000 O
atom 5.0972930545299997 7.4234141520200003 6.0311840349699999 O
atom 10.2932095695300010 7.4085537620200004 6.0090628999700000 O
atom 0.1552282780700000 1.4696236479800002 1.3089369465100000 O
atom 5.3511447930700005 1.4547632579800003 1.2868158115100001 O
atom 2.7574740018700004 2.9734032101800008 1.2940137189100001 O
atom 7.9533905168700008 2.9585428201800008 1.2718925839100002 O
atom 2.4950473307300003 5.9196345898200011 6.0461072625700005 O
atom 7.6909638457300007 5.9047741998200003 6.0239861275699997 O
atom 1.9150377023150003 1.5264115739100004 8.2296187723450007 O
atom 7.1109542173150002 1.5115511839100002 8.2074976373449999 O
atom 3.3559260258850006 7.3774556560900004 3.4501200220150001 O
atom 8.5518425408849996 7.3625952660900005 3.4279988870149998 O
atom 0.7539325059850001 5.9625707854900005 3.4648160343150001 O
atom 5.9498490209850008 5.9477103954900006 3.4426948993149997 O
atom 4.5170312222149995 2.9412964445100003 8.2149227600450008 O
atom 9.7129477372150017 2.9264360545100003 8.1928016250450000 O
atom 4.3802108919300000 0.0178400581200000 8.5465191666100004 O
atom 9.5761274069300022 0.0029796681200000 8.5243980316099996 O
atom 0.8935030180700002 8.8876420868800015 3.7803556173900001 O
atom 6.0894195330700001 8.8727816968800024 3.7582344823900002 O
atom 3.4789015213500005 4.4532562502000008 3.7806103718300004 O
atom 8.6748180363499987 4.4383958602000009 3.7584892368300000 O
atom 1.7948123886500000 4.4522258948000006 8.5462644121700002 O
atom 6.9907289036500009 4.4373655048000007 8.5241432771699994 O
