#=======================================================
#Created using the Atomic Simulation Environment (ASE)
#=======================================================
lattice_vector 9.3095008000000004 0.0215226600000000 -0.0242473900000000 
lattice_vector -0.0212599500000000 9.3089688200000005 0.0160687900000000 
lattice_vector 0.0238101200000000 -0.0163529600000000 9.3092283299999998 
atom 6.9946682024999998 2.3311194799999999 6.9677529025000000 Al
atom 2.3292878275000004 6.9748425599999999 6.9879109924999998 Al
atom 6.9721331675000000 6.9937803700000005 2.3211731324999998 Al
atom 6.9840382275000001 6.9856038900000001 6.9757872975000002 Al
atom 2.3173827675000003 6.9830190400000003 2.3332968274999999 Al
atom 6.9827631424999996 2.3392959599999998 2.3131387375000001 In
atom 2.3399178025000005 2.3203581500000001 6.9798765974999997 Ga
atom 2.3280127425000003 2.3285346300000000 2.3252624324999998 Ga
atom 6.9841235233000001 4.3459449851200000 4.6439166786400001 Al
atom 2.3068380883000001 8.9978445451200013 0.0094606036400000 Al
atom 6.9707727866999996 4.9871313448800008 -0.0096048086400000 In
atom 4.6499009534200004 6.9848674656400007 4.3380282992800003 Ga
atom 0.0176855884200000 2.3114452456400003 8.9967317642799998 Al
atom -0.0032303584200000 6.9729941343600004 4.9831795207200003 Al
atom 4.3454549878000011 4.6522492495600005 6.9786563587599995 Al
atom 8.9989303027999998 0.0167026495600000 2.3038841037599997 In
atom 4.9891310172000010 -0.0007716195600000 6.9689731412400002 Al
atom 2.3279274467000004 4.9681935348800002 4.6571330513599998 Al
atom 6.9814027617000001 0.3326469348800001 -0.0176392036400000 Al
atom 2.3174680633000002 4.3433601351200002 0.0014262086400000 Al
atom 4.6621500165800001 2.3292710543599999 4.9630214307200005 In
atom -0.0151354184200000 6.9811706143600007 0.3285653557200000 In
atom 0.0057805284200000 2.3196217256400002 4.3421175992799999 Al
atom 4.9665959822000012 4.6618892704400006 2.3223933712400000 Al
atom 0.3343806172000000 -0.0115329495600000 6.9810968362399999 Al
atom 4.3441799028000005 0.0059413195600000 2.3160077987599998 Al
atom 2.3385574217000000 0.3137091248800001 4.6490986563599996 Al
atom 4.6502449565799999 2.3374475343599999 0.3084072657200000 In
atom 0.3118455822000000 4.6511279404400003 2.3345170662400001 Al
atom 6.9734935482999996 9.0004293951200012 4.6519510736400003 In
atom 4.6618060134200006 6.9766909856400003 8.9926424642799994 Al
atom 9.0002053877999995 4.6630105795599999 6.9665326637599998 Al
atom 5.7791972942700003 3.6424233160600004 6.0981032995700000 O
atom 3.5387634298300004 8.2886679311799991 7.8620919942099992 O
atom 8.1831277731699998 5.6855508904200001 1.4406878093900000 O
atom 5.7790389277299994 5.6687041623400001 7.8517412218299993 O
atom 6.1031611127199996 5.7792855260000007 3.6339646389900002 O
atom 7.8703547111200001 3.5410027892800002 8.2801637850700001 O
atom 1.4480737318799999 8.1852911439200007 5.6796779953299996 O
atom 7.8585378692800001 5.7797668408000007 5.6588179056099994 O
atom 3.6408305600000004 6.1049600707799998 5.7727819613499998 O
atom 8.2858696605999995 7.8697322493400010 3.5294643996700001 O
atom 5.6871223405999993 1.4509158310600001 8.1798610011299999 O
atom 5.6663048637999998 7.8597381488200000 5.7705169628499995 O
atom 3.5328536757300002 5.6717152039399998 3.2029464304299995 O
atom 5.7732875401700001 1.0254705888200002 1.4389577357900001 O
atom 1.1289231968300000 3.6285876295800001 7.8603619206099999 O
atom 3.5330120422700002 3.6454343576600001 1.4493085081699999 O
atom 3.2088898572799995 3.5348529940000004 5.6670850910099997 O
atom 1.4416962588800000 5.7731357307200000 1.0208859449300001 O
atom 7.8639772381200004 1.1288473760800000 3.6213717346700003 O
atom 1.4535131007200000 3.5343716792000004 3.6422318243900000 O
atom 5.6712204099999992 3.2091784492200000 3.5282677686500001 O
atom 1.0261813094000001 1.4444062706600000 5.7715853303299998 O
atom 3.6249286294000003 7.8632226889400005 1.1211887288700000 O
atom 3.6457461062000003 1.4544003711800002 3.5305327671500000 O
atom 1.1019118592699999 8.2943228760599990 1.4636472245700001 O
atom 8.1922387448300000 3.6531213311800004 3.1873197392099999 O
atom 3.5509124081700003 1.0121286704200001 6.0993912743900003 O
atom 1.1230134427299998 1.0116349023400002 3.2012163568299998 O
atom 1.4709457477199999 1.1058633059999998 8.2926681039899997 O
atom 3.1930692761199997 8.1929023492800006 3.6457077100699999 O
atom 6.1015490468799998 3.5497445439200002 1.0049057403299999 O
atom 3.2025123842799998 1.1226975808000001 1.0082930406099999 O
atom 8.2943058750000009 1.4694134707800000 1.0980097063499998 O
atom 3.6536542956000004 3.1963100293399997 8.1881678646699996 O
atom 1.0098369056000003 6.1028153910600009 3.5454049261299998 O
atom 1.0102793788000002 3.2026688888199999 1.1199920978500000 O
atom 8.2101391107300010 1.0198156439399999 7.8374025054299992 O
atom 1.1198122251700000 5.6610171888200007 6.1137299907900005 O
atom 5.7611385618300002 8.3020098495800010 3.2016584556099996 O
atom 8.1890375272700009 8.3025036176599993 6.0998333731700001 O
atom 7.8411052222800004 8.2082752140000004 1.0083816260100000 O
atom 6.1189816938800003 1.1212361707200000 5.6553420199300000 O
atom 3.2105019231199998 5.7643939760800000 8.2961439896700000 O
atom 6.1095385857200002 8.1914409392000014 8.2927566893900000 O
atom 1.0177450950000002 7.8447250492200009 8.2030400236500007 O
atom 5.6583966743999996 6.1178284906600000 1.1128818653299999 O
atom 8.3022140644000011 3.2113231289400002 5.7556448038700001 O
atom 8.3017715911999996 6.1114696311800003 8.1810576321499990 O
