#=======================================================
#Created using the Atomic Simulation Environment (ASE)
#=======================================================
lattice_vector 11.0690419700000007 0.1503119200000000 0.0289327800000000 
lattice_vector -2.8321311100000002 4.7549402000000001 -0.0233007400000000 
lattice_vector -0.0387817100000000 0.0493220200000000 14.6533154099999994 
atom -0.0057784747900000 0.0073489809800000 2.1833439960899996 In
atom 5.5287425102100007 0.0825049409800000 2.1978103860900000 In
atom -0.0251693297900000 0.0320099909800000 9.5100017010899993 In
atom 5.5093516552100006 0.1071659509800000 9.5244680910900001 In
atom -0.0330032352100000 0.0419730390200000 12.4699714139099989 In
atom 5.5015177497900005 0.1171289990200000 12.4844378039099997 In
atom -0.0136123802100000 0.0173120290200000 5.1433137089099992 In
atom 5.5209086047900007 0.0924679890200000 5.1577800989099991 In
atom 2.7269285091669504 1.6588720427886201 7.0696549264408501 In
atom 8.2614494941669498 1.7340280027886201 7.0841213164408501 In
atom 2.7075376541669502 1.6835330527886201 14.3963126314408498 In
atom 8.2420586391669506 1.7586890127886201 14.4107790214408489 In
atom 2.7384854587469505 1.6441740808286200 2.7029669342608500 In
atom 8.2730064437469508 1.7193300408286201 2.7174333242608499 In
atom 2.7190946037469503 1.6688350908286200 10.0296246392608488 In
atom 8.2536155887469498 1.7439910508286200 10.0440910292608496 In
atom -0.0748772937469498 3.2352440991713802 11.9415141257391504 Ga
atom 5.4596436912530510 3.3104000591713802 11.9559805157391494 In
atom -0.0554864387469498 3.2105830891713802 4.6148564207391498 In
atom 5.4790345462530512 3.2857390491713803 4.6293228107391498 In
atom -0.0633203441669498 3.2205461372113802 7.5748261335591494 In
atom 5.4712006408330511 3.2957020972113802 7.5892925235591493 In
atom -0.0439294891669498 3.1958851272113802 0.2481684285591500 Ga
atom 5.4905914958330513 3.2710410872113802 0.2626348185591500 In
atom 1.6949370358800000 0.0354785406800000 3.6677845006199998 O
atom 7.2294580208800010 0.1106345006800000 3.6822508906199998 O
atom 1.8603583660000000 3.3547570477199997 3.6572154822999998 O
atom 7.3948793510000002 3.4299130077199997 3.6716818722999998 O
atom -0.8819918093800000 1.4768520865999999 3.6561522245800000 O
atom 4.6525291756200007 1.5520080465999999 3.6706186145799999 O
atom 0.8032497990000000 1.5246611322799999 10.9872655776999988 O
atom 6.3377707840000008 1.5998170922799999 11.0017319676999996 O
atom -1.9889210106199999 3.3274101333999999 10.9738624454200000 O
atom 3.5455999743800009 3.4025660933999999 10.9883288354199991 O
atom 3.8008022391200003 0.0889994393200000 10.9999972993800004 O
atom 9.3353232241199997 0.1641553993200000 11.0144636893799994 O
atom 4.4276440198369507 1.6870016024886201 8.5540954309708503 O
atom 9.9621650048369510 1.7621575624886199 8.5685618209708494 O
atom 1.8906754749569499 0.1761839495286200 8.5523607626508493 O
atom 7.4251964599569504 0.2513399095286200 8.5668271526508502 O
atom 1.8507151745769501 3.1283751484086202 8.5424631549308501 O
atom 7.3852361595769507 3.2035311084086202 8.5569295449308491 O
atom 3.5747384929569503 3.1268621740886200 1.2202610980508499 O
atom 9.1092594779569520 3.2020181340886200 1.2347274880508501 O
atom 3.6146987933369505 0.1746709752086200 1.2301587057708501 O
atom 9.1492197783369509 0.2498269352086200 1.2446250957708500 O
atom 1.0377699480769502 1.6160445211286201 1.2185264297308500 O
atom 6.5722909330769497 1.6912004811286199 1.2329928197308500 O
atom 1.6258382169230499 3.2633736588713802 13.4259546302691497 O
atom 7.1603592019230504 3.3385296188713802 13.4404210202691488 O
atom -0.9111303279569500 1.7525560059113798 13.4242199619491487 O
atom 4.6233906570430507 1.8277119659113799 13.4386863519491495 O
atom -0.9510906283369497 4.7047472047913805 13.4143223542291494 O
atom 4.5834303566630510 4.7799031647913806 13.4287887442291503 O
atom 0.7729326900430500 4.7032342304713799 6.0921202973491502 O
atom 6.3074536750430505 4.7783901904713799 6.1065866873491501 O
atom 0.8128929904230502 1.7510430315913799 6.1020179050691503 O
atom 6.3474139754230512 1.8261989915913799 6.1164842950691503 O
atom -1.7640358548369501 3.1924165775113802 6.0903856290291500 O
atom 3.7704851301630509 3.2675725375113802 6.1048520190291500 O
