#=======================================================
#Created using the Atomic Simulation Environment (ASE)
#=======================================================
lattice_vector 10.3499109499999999 0.0315663400000000 -0.1001595000000000 
lattice_vector 5.1660012000000002 3.0462238699999999 -0.0293590900000000 
lattice_vector -0.1591918900000000 -0.0993925200000000 14.7825226099999991 
atom 8.4723668631142690 -0.0689458814405794 14.0831178689754548 Ga
atom 5.1749554750000000 0.0157831700000000 -0.0500797500000000 Ga
atom 9.4564092856357309 1.5275907414405794 2.3823012722745434 Ga
atom 4.2814538106357309 1.5118075714405794 2.4323810222745434 Ga
atom 5.1152585162499999 -0.0214890250000000 5.4933662287499994 Ga
atom 1.6785542243857301 -0.0237284285594206 4.2948758935245435 Ga
atom -0.0795959450000000 -0.0496962600000000 7.3912613049999996 Ga
atom 8.5718617943642688 -0.0068255564405794 4.8440412377254560 Ga
atom 2.5034046550000002 1.4734156750000000 7.3765817599999997 In
atom 7.6783601299999997 1.4891988450000000 7.3265020099999996 Ga
atom 8.5121648356142696 -0.0440977514405794 10.3874872164754546 In
atom 5.0754605437500002 -0.0463371550000000 9.1889968812499987 Ga
atom 3.3173103743642693 -0.0723049864405794 12.2853822927254548 Ga
atom 1.6188572656357301 -0.0610006235594206 9.8383218722745429 Ga
atom 5.9003109743642694 1.4508069485594206 12.2707027477254549 Ga
atom 11.0752664493642694 1.4665901185594206 12.2206229977254548 In
atom 3.5054384123500002 0.0022841914000000 1.2224601918500000 O
atom 1.5798552525857301 -0.0853517909594206 13.4600399117245431 O
atom 5.9851189883499991 1.4644716490000000 1.2083678286499999 O
atom 11.1597162923499997 1.6014724469999999 1.1591169050500001 O
atom 8.6108638074142689 0.0175256109594206 1.2223231982754563 O
atom 6.6852806476500000 -0.0701103714000000 13.4599029181500001 O
atom 9.3716012716500003 1.5139260409999999 13.4446361913499999 O
atom 4.1970039676499997 1.3769252430000001 13.4938871149500006 O
atom 6.9023447317142690 -0.0203245350405794 6.1165811795754559 O
atom 5.1359534619499998 -0.0085679974000000 3.5716382894499996 O
atom 9.3820253077142706 1.4418629225594206 6.1024888163754563 O
atom 4.2067116617142704 1.5472973805594206 6.1533973927754557 O
atom 1.6578592786857300 -0.0366494561594206 6.2166038328245437 O
atom 10.2413788570142703 0.0066734221594206 3.5715012958754557 O
atom 12.9276994810142707 1.5907098345594206 3.5562345690754560 O
atom 7.7531021770142701 1.4537090365594205 3.6054854926754558 O
atom -0.0506597970142698 -0.0744996021594206 11.1108618141245419 O
atom 8.5328597813142686 -0.0311767238405794 8.4657592771754562 O
atom 2.4290207789857301 1.3876878554405794 11.0967694509245423 O
atom 7.6036180829857303 1.5246886534405792 11.0475185273245433 O
atom 5.0547655980500004 -0.0592581826000000 11.1107248205499989 O
atom 3.2883743282857298 -0.0475016449594206 8.5657819304245439 O
atom 5.9746949522857307 1.5365347674405794 8.5505152036245438 O
atom 11.1500085982857300 1.4311003094405794 8.4996066272245443 O
