#=======================================================
#Created using the Atomic Simulation Environment (ASE)
#=======================================================
lattice_vector 6.7562219199999998 0.1178393700000000 0.0199697800000000 
lattice_vector -3.4790163800000000 5.7920817500000004 0.0463252000000000 
lattice_vector -0.0710187900000000 -0.2495125100000000 24.6830056700000000 
atom -0.0177546975000000 -0.0623781275000000 6.1707514175000000 In
atom -0.0532640925000000 -0.1871343825000000 18.5122542525000000 Al
atom 4.9989590324999993 2.9515021175000000 6.2138837975000003 In
atom 4.9634496374999992 2.8267458625000002 18.5553866324999994 In
atom 3.3603562624999999 -0.0034584425000000 6.1807363075000001 In
atom 3.3248468674999998 -0.1282146975000000 18.5222391424999984 In
atom 1.6208480724999998 2.8925824324999998 6.2038989075000002 In
atom 1.5853386774999998 2.7678261774999999 18.5454017425000011 In
atom 0.0000000000000000 0.0000000000000000 0.0000000000000000 In
atom -0.0355093950000000 -0.1247562550000000 12.3415028350000000 Al
atom 5.0167137299999993 3.0138802450000002 0.0431323800000000 In
atom 4.9812043349999993 2.8891239900000003 12.3846352149999994 Al
atom 3.3781109599999999 0.0589196850000000 0.0099848900000000 Al
atom 3.3426015649999998 -0.0658365700000000 12.3514877250000001 In
atom 1.6386027699999999 2.9549605600000000 0.0331474900000000 Al
atom 1.6030933749999998 2.8302043050000001 12.3746503249999993 Al
atom -0.0425091252360001 1.9189497145354999 3.1041438617470001 In
atom -0.0780185202360001 1.7941934595355000 15.4456466967469996 Al
atom -1.7820173152360002 4.8149905895355003 3.1273064617470001 In
atom -1.8175267102360002 4.6902343345355009 15.4688092967470006 In
atom 3.3356018347639997 1.9778693995355001 3.1141287517470002 In
atom 3.3000924397639997 1.8531131445355002 15.4556315867469998 Al
atom 1.5960936447639997 4.8739102745355005 3.1372913517469998 In
atom 1.5605842497639997 4.7491540195355011 15.4787941867470007 Al
atom 1.6456025002360000 0.9112545904645000 9.2705064632529997 Al
atom 1.6100931052359999 0.7864983354645000 21.6120092982529997 In
atom -0.0939056897640000 3.8072954654645002 9.2936690632530006 In
atom -0.1294150847640000 3.6825392104645003 21.6351718982529988 In
atom 5.0237134602360003 0.9701742754645000 9.2804913532529998 In
atom 4.9882040652360002 0.8454180204645000 21.6219941882530016 In
atom 3.2842052702359998 3.8662151504644999 9.3036539532530007 Al
atom 3.2486958752359998 3.7414588954645001 21.6451567882530007 In
atom -0.0483291150765001 1.8985021643410001 5.1269161764035003 O
atom -0.0838385100765001 1.7737459093410000 17.4684190114034976 O
atom -1.7878373050765002 4.7945430393410007 5.1500787764035003 O
atom -1.8233467000765002 4.6697867843410004 17.4915816114035003 O
atom 3.3297818449234997 1.9574218493410003 5.1369010664034995 O
atom 3.2942724499234997 1.8326655943410002 17.4784039014034995 O
atom 1.5902736549234997 4.8534627243410009 5.1600636664034996 O
atom 1.5547642599234996 4.7287064693410006 17.5015665014034987 O
atom 1.6514224900765000 0.9317021406590000 7.2477341485964990 O
atom 1.6159130950764999 0.8069458856589999 19.5892369835964999 O
atom -0.0880856999235000 3.8277430156590002 7.2708967485964990 O
atom -0.1235950949235000 3.7029867606590003 19.6123995835964990 O
atom 5.0295334500765003 0.9906218256590000 7.2577190385964991 O
atom 4.9940240550765003 0.8658655706589999 19.5992218735965018 O
atom 3.2900252600764999 3.8866627006590000 7.2808816385964992 O
atom 3.2545158650764998 3.7619064456590001 19.6223844735965010 O
atom 1.6397825103954999 0.8908070402700000 11.2932787779095012 O
atom 1.6042731153955001 0.7660507852700000 23.6347816129094994 O
atom -0.0997256796045000 3.7868479152700001 11.3164413779095003 O
atom -0.1352350746045000 3.6620916602700002 23.6579442129094986 O
atom 5.0178934703955003 0.9497267252700000 11.3032636679095013 O
atom 4.9823840753955002 0.8249704702700000 23.6447665029094978 O
atom 3.2783852803954998 3.8457676002699999 11.3264262679095005 O
atom 3.2428758853954998 3.7210113452700000 23.6679291029095005 O
atom -0.0366891353955001 1.9393972647300000 1.0813715470904999 O
atom -0.0721985303955001 1.8146410097299999 13.4228743820905017 O
atom -1.7761973253955001 4.8354381397300008 1.1045341470904999 O
atom -1.8117067203955002 4.7106818847300005 13.4460369820905008 O
atom 3.3414218246044998 1.9983169497300002 1.0913564370905000 O
atom 3.3059124296044997 1.8735606947300001 13.4328592720905000 O
atom 1.6019136346044998 4.8943578247300010 1.1145190370905000 O
atom 1.5664042396044997 4.7696015697300007 13.4560218720905009 O
atom -0.0088773487500000 -0.0311890637500000 3.0853757087500000 O
atom -0.0443867437500000 -0.1559453187500000 15.4268785437500000 O
atom 5.0078363812499997 2.9826911812500003 3.1285080887499999 O
atom 4.9723269862499997 2.8579349262500000 15.4700109237499994 O
atom 3.3692336112499999 0.0277306212500000 3.0953605987500001 O
atom 3.3337242162499998 -0.0970256337500000 15.4368634337500001 O
atom 1.6297254212499999 2.9237714962500001 3.1185231987500002 O
atom 1.5942160262499998 2.7990152412499998 15.4600260337499993 O
atom -0.0266320462500000 -0.0935671912500000 9.2561271262500000 O
atom -0.0621414412500000 -0.2183234462500000 21.5976299612500000 O
atom 4.9900816837499997 2.9203130537500002 9.2992595062499994 O
atom 4.9545722887499997 2.7955567987500003 21.6407623412499994 O
atom 3.3514789137499998 -0.0346475062500000 9.2661120162500001 O
atom 3.3159695187499998 -0.1594037612500000 21.6076148512499984 O
atom 1.6119707237499998 2.8613933687499999 9.2892746162499993 O
atom 1.5764613287499998 2.7366371137500001 21.6307774512500011 O
