#=======================================================
#Created using the Atomic Simulation Environment (ASE)
#=======================================================
lattice_vector 10.1679376500000007 -0.0036647900000000 0.0067691300000000 
lattice_vector 0.0037778300000000 10.1678519600000001 0.0049554900000000 
lattice_vector -0.0068768900000000 -0.0050374000000000 10.1681652499999995 
atom 7.6217400275000013 2.5354363474999997 7.6324396575000000 In
atom 2.5396601175000004 7.6211947225000003 7.6315328375000000 In
atom 7.6270673875000004 7.6218810275000006 2.5508347775000000 In
atom 7.6236289425000008 7.6193623275000002 7.6349174024999993 Al
atom 2.5430985625000004 7.6237134225000007 2.5474502124999998 In
atom 7.6251784725000009 2.5379550474999997 2.5483570324999998 In
atom 2.5377712025000005 2.5372687424999998 7.6290550924999998 In
atom 2.5412096475000006 2.5397874424999998 2.5449724675000001 In
atom 7.6242752612800011 4.7329517208600000 5.0914687308400000 In
atom 2.5456337962800002 9.8212287958599997 0.0064792858400000 In
atom 7.6279705987200010 5.4268843541400003 0.0077230791600000 Al
atom 5.0835975667600000 7.6217091465999998 4.7454661890000001 In
atom -0.0056986182400000 2.5370968616000003 9.8236865039999994 In
atom -0.0008388867600000 7.6231989984000004 5.4335168610000002 In
atom 4.7349901924000015 5.0784401378599995 7.6317560970799994 In
atom 9.8205085473999993 -0.0047995371400000 2.5485802920800000 In
atom 5.4245210376000008 -0.0057350478600000 7.6297386529199995 In
atom 2.5405633287200002 5.4261980491399999 5.0884211391599994 In
atom 7.6260816837200007 0.3429583741400000 0.0052453341600000 In
atom 2.5437448812800003 4.7373028158600006 0.0040015408400000 In
atom 5.0812410232400005 2.5374406233999998 5.4344236810000002 In
atom 0.0025995582400000 7.6257176983999999 0.3494342360000000 In
atom -0.0022601732400000 2.5396155616000002 4.7396038789999997 In
atom 5.4298483976000007 5.0807096321400005 2.5481337729200000 In
atom 0.3405522126000000 -0.0039026528600000 7.6263540879199994 In
atom 4.7365397224000008 -0.0029671421400000 2.5451957270799999 In
atom 2.5386744137200004 0.3422720691400000 5.0859433941600001 In
atom 5.0846794682400009 2.5399593233999997 0.3503410560000000 In
atom 0.3458795726000000 5.0825420271400006 2.5447492079199998 In
atom 7.6261641762800014 9.8168777008600010 5.0939464758400002 In
atom 5.0801591217600004 7.6191904466000002 9.8295488139999989 In
atom 9.8189590173999992 5.0766077428600003 7.6351406620799995 Al
atom 6.3010872346899998 3.9700534121600004 6.6764508611900002 O
atom 3.8613782583700007 9.0539119105599983 8.5889190819899994 O
atom 8.9490130356299993 6.1882109940399994 1.5952085068099999 O
atom 6.3006179463100001 6.1856981082399995 8.5891462250099995 O
atom 6.6698204890100010 6.2996944895600002 3.9832655658300000 O
atom 8.5770476430100011 3.8562023386400002 9.0674314696699998 O
atom 1.5853347377900002 8.9440702409600004 6.1978294527299997 O
atom 8.5798936051899997 6.2979073558399996 6.2011981867699992 O
atom 3.9738782058300002 6.6655547648700004 6.3101599862699995 O
atom 9.0602077164699999 8.5764875143499992 3.8741165233899997 O
atom 6.1868117071299995 1.5795201366500000 8.9528808766099992 O
atom 6.1911988455699998 8.5763120091299996 6.3125672887299995 O
atom 3.8637513553100007 6.1890963578399996 3.5034390088099996 O
atom 6.3034603316300002 1.1052378594400001 1.5909707880099999 O
atom 1.2158255543700001 3.9709387759600001 8.5846813631899987 O
atom 3.8642206436900008 3.9734516617600004 1.5907436449899999 O
atom 3.4950181009899999 3.8594552804400002 6.1966243041699993 O
atom 1.5877909469900002 6.3029474313600007 1.1124584003300000 O
atom 8.5795038522099993 1.2150795290400001 3.9820604172700000 O
atom 1.5849449848100001 3.8612424141599999 3.9786916832300001 O
atom 6.1909603841700003 3.4935950051300000 3.8697298837299998 O
atom 1.1046308735300001 1.5826622556499998 6.3057733466099997 O
atom 3.9780268828700005 8.5796296333500006 1.2270089933899999 O
atom 3.9736397444300002 1.5828377608699999 3.8673225812699998 O
atom 1.2224457696900002 9.0583304871599992 1.5914614161899998 O
atom 8.9468966133700008 3.9706722355599999 3.5057432769899997 O
atom 3.8597168506300008 1.1035987090399999 6.6734288218100000 O
atom 1.2181986513100000 1.1061232232400000 3.4992012900099994 O
atom 1.5805243040100001 1.2150822045600000 9.0614858808300003 O
atom 3.4984061780099998 8.9444794136399999 3.9824420246700001 O
atom 6.6708530927900007 3.8608305659600002 1.1146536477300000 O
atom 3.4974743101899999 1.2183324708399998 1.1112532517700000 O
atom 9.0593965608300007 1.5823150898700000 1.2269841812700000 O
atom 3.9709115314700001 3.4918752293500002 8.9523368383899999 O
atom 1.1081702421300001 6.6677972116500008 3.8678914316099999 O
atom 1.1087795505700002 3.4967371241300000 1.2226223537299998 O
atom 8.9423928203099994 1.1008192828400001 8.5884284538099998 O
atom 1.2179419766300001 6.1884775344399996 6.6741465930099997 O
atom 6.3051217393700005 9.0555510609600010 3.5064610481899994 O
atom 8.9466399386899997 9.0530265467600000 6.6806885799900000 O
atom 8.5843142859900006 8.9440675654400010 1.1184039891699999 O
atom 6.6664324119900007 1.2146703563599999 6.1974478453299993 O
atom 3.4939854972099997 6.2983192040399993 9.0652362222700003 O
atom 6.6673642798100001 8.9408172991600008 9.0686366182300002 O
atom 1.1054420291700000 8.5768346801300002 8.9529056887300005 O
atom 6.1939270585299999 6.6672745406500011 1.2275530316099998 O
atom 9.0566683478700014 3.4913525583500000 6.3119984383899999 O
atom 9.0560590394300018 6.6624126458699999 8.9572675162699991 O
