#=======================================================
#Created using the Atomic Simulation Environment (ASE)
#=======================================================
lattice_vector 10.9483872000000009 -0.0217414700000000 -0.0621675200000000 
lattice_vector 0.0182684100000000 9.3273948699999991 -0.0397587100000000 
lattice_vector 0.0569409600000000 0.0422638800000000 9.9513541399999994 
atom 1.7631826692299999 7.9636792894099990 6.8925610402499995 In
atom 7.2373762692300012 7.9528085544099989 6.8614772802499990 In
atom 3.7801845590100003 1.3906287543100000 1.9331070909099999 In
atom 9.2543781590100025 1.3797580193099999 1.9020233309099999 In
atom 1.0467779778300002 3.2801978855499994 1.9406177114900001 In
atom 6.5209715778300001 3.2693271505499992 1.9095339514900000 In
atom 4.4965892504100005 6.0741101581699999 6.8850504196699989 In
atom 9.9707828504100000 6.0632394231699998 6.8539666596699993 In
atom 0.9919012681800000 6.1354799628949994 -0.0317252242200000 In
atom 6.4660948681800008 6.1246092278949993 -0.0628089842200000 Al
atom 4.5290312218200004 3.2021761121050001 4.9365598242199997 Ga
atom 10.0032248218199999 3.1913053771050000 4.9054760642200002 Ga
atom 1.7885730343800001 1.4913708235250001 4.9594173068599998 Ga
atom 7.2627666343800010 1.4805000885249999 4.9283335468599994 In
atom 3.7893004156200005 7.8885491314749991 9.8967714331399996 In
atom 9.2634940156200027 7.8776783964749999 9.8656876731400001 In
atom 0.9770965961400001 0.3202171787399999 9.9349879528800003 In
atom 6.4512901961400004 0.3093464437399999 9.9039041928799989 Al
atom 4.6006629719400003 9.0596182484999996 4.9012980788400000 In
atom 10.0748565719400016 9.0487475134999986 4.8702143188399996 In
atom 1.8555280715400002 4.9609998731999996 4.9343337912399994 In
atom 7.3297216715400006 4.9501291381999994 4.9032500312399998 In
atom 3.7222314965400005 4.4188355540399993 9.9019522404800000 In
atom 9.1964250965400005 4.4079648190399991 9.8708684804799987 Ga
atom 3.7975032918900009 1.4902162146749998 7.8041812151099998 In
atom 9.2716968918900005 1.4793454796749999 7.7730974551100003 Al
atom 1.7561133091500001 7.8716993274449996 2.8127306612499998 In
atom 7.2303069091500003 7.8608285924449994 2.7816469012499998 Ga
atom 4.4898121848899999 6.1313685141249996 2.8045839013099996 In
atom 9.9640057848900003 6.1204977791249995 2.7735001413099996 In
atom 1.0638044161500000 3.2305470279950002 7.8123279750499997 Ga
atom 6.5379980161500013 3.2196762929950000 7.7812442150500001 Al
atom 4.6011763379700001 6.2687569735549999 8.8341922329900004 O
atom 10.0753699379700006 6.2578862385549998 8.8031084729899991 O
atom 0.9645117465900002 3.1021185111250000 3.8924067210500000 O
atom 6.4387053465900008 3.0912477761249999 3.8613229610499999 O
atom 3.6986490641700005 1.5856451746850000 3.8833057520700001 O
atom 9.1728426641700018 1.5747744396849999 3.8522219920700000 O
atom 1.8670390203900002 7.7852303099949980 8.8432932019699990 O
atom 7.3412326203900005 7.7743595749949979 8.8122094419699994 O
atom 2.9099319195300004 0.1048233984750000 6.2427249516699996 O
atom 8.3841255195300004 0.0939526634750000 6.2116411916700001 O
atom 2.6256913381500002 9.2437367575649994 1.2295590164499999 O
atom 8.0998849381500015 9.2328660225649983 1.1984752564499999 O
atom 5.3539827645300004 4.7424970627249987 1.2331808346699999 O
atom 10.8281763645300018 4.7316263277249995 1.2020970746699999 O
atom 0.1816404931500000 4.6060630933150000 6.2391031334499996 O
atom 5.6558340931500002 4.5951923583149998 6.2080193734500000 O
atom 0.1041107352300000 7.7187064259449993 1.1707671413699998 O
atom 5.5783043352300004 7.7078356909449992 1.1396833813699998 O
atom 5.4306014670900007 1.6291775080149997 6.1422951605099998 O
atom 10.9047950670900029 1.6183067730149998 6.1112114005099993 O
atom 2.6963180022300004 3.0710316854949995 6.1517141991699997 O
atom 8.1705116022300004 3.0601609504949998 6.1206304391699993 O
atom 2.8383942000900002 6.2768522484649996 1.1613481027099999 O
atom 8.3125878000900002 6.2659815134650003 1.1302643427099999 O
atom 5.3724986340300003 7.8047727174699988 6.2855520037499995 O
atom 10.8466922340299998 7.7939019824699987 6.2544682437499999 O
atom 0.1641495609300000 1.5445481884099999 1.3658563388900000 O
atom 5.6383431609300008 1.5336774534099999 1.3347725788900000 O
atom 2.9043519906300004 3.1247699488100000 1.3435554781900001 O
atom 8.3785455906300026 3.1138992138099999 1.3124717181900001 O
atom 2.6322962043300002 6.2245509570699991 6.3078528644500000 O
atom 8.1064898043300015 6.2136802220699989 6.2767691044499996 O
atom 2.0286003906600003 1.6183333126449999 8.5998924671800001 O
atom 7.5027939906600007 1.6074625776450000 8.5688087071799988 O
atom 3.5340128820600003 7.7502599225149993 3.5893333632999997 O
atom 9.0082064820600021 7.7393891875149992 3.5582496032999997 O
atom 0.7939931364600001 6.2633121108149998 3.6112366368999997 O
atom 6.2681867364600006 6.2524413758149997 3.5801528768999997 O
atom 4.7686201362600009 3.1052811243449998 8.5779891935799988 O
atom 10.2428137362600005 3.0944103893449997 8.5469054335799992 O
atom 4.6276909820100007 0.0382769524100000 8.9301929439299990 O
atom 10.1018845820100012 0.0274062174100000 8.8991091839299994 O
atom 0.9387942759900002 9.3331902265900002 3.9357249680700002 O
atom 6.4129878759900008 9.3223194915899992 3.9046412080700001 O
atom 3.6667934078100006 4.6827122138299995 3.9399829256499999 O
atom 9.1409870078100006 4.6718414788299993 3.9088991656499998 O
atom 1.8996918501900002 4.6887549651700002 8.9259349863499988 O
atom 7.3738854501900013 4.6778842301700001 8.8948512263499993 O
