#=======================================================
#Created using the Atomic Simulation Environment (ASE)
#=======================================================
lattice_vector 24.0772527300000014 0.0000034600000000 0.0564491000000000 
lattice_vector -0.0000257900000000 5.9379790300000002 0.0000835200000000 
lattice_vector -1.3895872600000001 0.0000005800000000 5.5391969100000003 
atom 10.6582459774850005 0.0000016914700000 1.1611914825000000 Ga
atom 10.6582330824850011 2.9689912064700001 1.1612332425000000 Ga
atom 22.6968723424850047 0.0000034214700000 1.1894160325000001 Al
atom 22.6968594474850036 2.9689929364700003 1.1894577925000001 Al
atom -0.0092068724850002 0.0000006185300000 4.4062299775000007 Al
atom -0.0092197674850002 2.9689901335300002 4.4062717375000000 Al
atom 12.0294194925150002 0.0000023485300000 4.4344545275000007 Ga
atom 12.0294065975150009 2.9689918635299999 4.4344962875000000 Ga
atom 4.6389263474850004 1.4844955839700000 1.1471000874999999 Al
atom 4.6389134524850002 4.4534850989699999 1.1471418474999999 Al
atom 16.6775527124850029 1.4844973139700002 1.1753246374999999 Ga
atom 16.6775398174850018 4.4534868289700000 1.1753663974999999 Al
atom 6.0100998625150002 1.4844962410300000 4.4203631325000003 Al
atom 6.0100869675149999 4.4534857560300001 4.4204048925000006 Al
atom 18.0487262275150009 1.4844979710299999 4.4485876825000004 Ga
atom 18.0487133325149998 4.4534874860300002 4.4486294425000006 Al
atom 9.1712214651049990 1.4844966103100001 3.8236468068100007 Al
atom 9.1712085701049997 4.4534861253099995 3.8236885668100005 Al
atom 21.2098478301050015 1.4844983403100001 3.8518713568100003 Al
atom 21.2098349351050004 4.4534878553099997 3.8519131168100005 Al
atom 1.4778047448950002 1.4844952146900001 1.7438164131900000 Al
atom 1.4777918498950002 4.4534847296899995 1.7438581731900000 Al
atom 13.5164311098950023 1.4844969446900000 1.7720409631900000 Al
atom 13.5164182148950029 4.4534864596899997 1.7720827231900000 Al
atom 3.1519147301050006 0.0000009878100000 3.8095136518100006 Al
atom 3.1519018351050003 2.9689905028100001 3.8095554118100003 Al
atom 15.1905410951050008 0.0000027178100000 3.8377382018100006 Al
atom 15.1905282001049997 2.9689922328100002 3.8377799618100004 Al
atom 7.4971243748950007 0.0000013221900000 1.7579078081900001 Al
atom 7.4971114798950005 2.9689908371900002 1.7579495681900001 Al
atom 19.5357507398950041 0.0000030521900000 1.7861323581900002 Al
atom 19.5357378448950030 2.9689925671899999 1.7861741181900002 Al
atom 9.3486943712350001 0.0000016841700000 2.4439707525200003 O
atom 9.3486814762350008 2.9689911991700000 2.4440125125200001 O
atom 21.3873207362350009 0.0000034141700000 2.4721953025200003 O
atom 21.3873078412349997 2.9689929291700001 2.4722370625200001 O
atom 1.3003447337649998 0.0000006258300000 3.1234507074800000 O
atom 1.3003318387650000 2.9689901408299999 3.1234924674799998 O
atom 13.3389710987650005 0.0000023558300000 3.1516752574800000 O
atom 13.3389582037650012 2.9689918708300000 3.1517170174799998 O
atom 3.3293747412350005 1.4844955766700001 2.4298793575199999 O
atom 3.3293618462350008 4.4534850916699993 2.4299211175200002 O
atom 15.3680011062349990 1.4844973066700002 2.4581039075200000 O
atom 15.3679882112349997 4.4534868216699994 2.4581456675200002 O
atom 7.3196514687650014 1.4844962483299999 3.1375838624799997 O
atom 7.3196385737650020 4.4534857633300007 3.1376256224799999 O
atom 19.3582778337650048 1.4844979783300001 3.1658084124799997 O
atom 19.3582649387650036 4.4534874933299999 3.1658501724799999 O
atom 8.8155203533749997 0.0000019607500000 4.9534527491500002 O
atom 8.8155074583750004 2.9689914757500002 4.9534945091500004 O
atom 20.8541467183749987 0.0000036907500000 4.9816772991500002 O
atom 20.8541338233749975 2.9689932057500004 4.9817190591500005 O
atom 1.8335187516250002 0.0000003492500000 0.6139687108500000 O
atom 1.8335058566250002 2.9689898642500001 0.6140104708500000 O
atom 13.8721451166250027 0.0000020792500000 0.6421932608500001 O
atom 13.8721322216250034 2.9689915942499998 0.6422350208500001 O
atom 2.7962007233750010 1.4844958532500001 4.9393613541499999 O
atom 2.7961878283750008 4.4534853682500000 4.9394031141500001 O
atom 14.8348270883750022 1.4844975832500000 4.9675859041499999 O
atom 14.8348141933750011 4.4534870982500001 4.9676276641500001 O
atom 7.8528254866250000 1.4844959717499999 0.6281018658500001 O
atom 7.8528125916250007 4.4534854867500000 0.6281436258500001 O
atom 19.8914518516250034 1.4844977017500001 0.6563264158500001 O
atom 19.8914389566250023 4.4534872167500001 0.6563681758500001 O
atom -0.9843152762200000 1.4844951953599999 4.1157570823300000 O
atom -0.9843281712200000 4.4534847103599997 4.1157988423300003 O
atom 11.0543110887799987 1.4844969253600000 4.1439816323300001 O
atom 11.0542981937799993 4.4534864403599999 4.1440233923300003 O
atom 11.6333414862200009 1.4844966296400000 1.4517061376700000 O
atom 11.6333285912200015 4.4534861446399994 1.4517478976700000 O
atom 23.6719678512199998 1.4844983596399999 1.4799306876700000 O
atom 23.6719549562199987 4.4534878746399995 1.4799724476700000 O
atom 5.0350043537800007 0.0000013028600000 4.1298484773300004 O
atom 5.0349914587800004 2.9689908178600004 4.1298902373299997 O
atom 17.0736307187799987 0.0000030328600000 4.1580730273300004 O
atom 17.0736178237799976 2.9689925478600001 4.1581147873299997 O
atom 5.6140347512200002 0.0000010071400000 1.4375729826700001 O
atom 5.6140218562199999 2.9689905221399999 1.4376147426700001 O
atom 17.6526611162199991 0.0000027371400000 1.4657975326700001 O
atom 17.6526482212199980 2.9689922521400001 1.4658392926700001 O
