#=======================================================
#Created using the Atomic Simulation Environment (ASE)
#=======================================================
lattice_vector 5.3063219699999999 -0.0165933500000000 -0.0270298500000000 
lattice_vector 0.0281365400000000 9.0677765400000006 -0.0296426900000000 
lattice_vector 0.0494893000000000 0.0314174100000000 9.6916081799999994 
atom 0.9683454759499999 5.9636267536700007 -0.0243432331700000 In
atom 4.3908576840499993 3.1032651413300005 4.8134747831699993 Al
atom 1.7325195756899998 1.4430909329700001 4.8324439631299994 Ga
atom 3.6266835843099998 7.6238009620299998 -0.0433124131300000 Ga
atom 3.6781960653299999 1.4369999737000003 7.6041262880799998 Ga
atom 1.7094139528699999 7.6479255146400007 2.7479883572399997 Al
atom 4.3573415414299994 5.9530224032000003 2.7399869725799997 In
atom 1.0302684767700001 3.1319030851400003 7.6121276727399998 In
atom 1.7140106922799998 7.7333986451100003 6.7213916590699991 Al
atom 3.6646912519199994 1.3458717094299999 1.8862335138499999 In
atom 1.0172138479999999 3.1858592455099997 1.8937606154700000 Ga
atom 4.3614880962000004 5.8934111090300005 6.7138645574499991 In
atom 0.9417459978600001 0.3006316059900000 9.6764862763199986 Al
atom 4.4668474835400005 8.7976148641900007 4.7848702373199998 In
atom 1.8013064209400000 4.8160898615900001 4.8114279459199993 Ga
atom 3.6072870604600000 4.2821566085900002 9.6499285677200000 In
atom 4.4619582032900000 6.0806423652400001 8.6123673994800001 O
atom 0.9361435465100001 3.0109436140200003 3.7943681799999998 O
atom 3.5847464120299999 1.5336671395400001 3.7856553707799998 O
atom 1.8133553377700000 7.5579188397200001 8.6210802086999987 O
atom 2.8172010328100003 0.0926600310000000 6.0815640897599996 O
atom 2.5547703665899997 8.9823375557799991 1.2080023706800000 O
atom 5.1943695393100002 4.6033725885000010 1.2087752222599999 O
atom 0.1776018600900000 4.4716249982800003 6.0807912381799998 O
atom 5.2128131391400006 7.5755089822800006 6.1322213584899998 O
atom 0.1600490676600000 1.5000541178800002 1.3317940491900000 O
atom 2.8179932644600001 3.0332794546800002 1.3132398668900001 O
atom 2.5548689423399997 6.0422836454800004 6.1507755407899998 O
atom 0.1088519534300000 7.5026038049400006 1.1477646373999999 O
atom 5.2623276171699995 1.5718911032800000 5.9867360921599992 O
atom 2.6134996593299999 2.9766253654400003 5.9956860428999992 O
atom 2.7576799112699999 6.0978695427800007 1.1388146866600000 O
atom 1.9632231767699999 1.5627392895100001 8.3781356507300000 O
atom 3.4322061508299999 7.5271501496100006 3.5052530870299998 O
atom 0.7745433194300000 6.0846025782100011 3.5235108424299999 O
atom 4.6208860081699994 3.0052868609100001 8.3598778953299995 O
atom 4.4806536734600000 0.0234714049400000 8.6998207647099992 O
atom 0.9181409265400000 9.0685544180599997 3.8425973292899998 O
atom 3.5572899146200001 4.5445050261400013 3.8438444639100000 O
atom 1.8415046853800001 4.5475207968599998 8.6985736300899994 O
