#=======================================================
#Created using the Atomic Simulation Environment (ASE)
#=======================================================
lattice_vector 6.4718463699999997 0.1335140600000000 0.0440580800000000 
lattice_vector -3.3511644800000000 5.5380441300000003 0.0170476400000000 
lattice_vector -0.1637951900000000 -0.1804387500000000 24.1701672800000011 
atom -0.0409487975000000 -0.0451096875000000 6.0425418200000003 Ga
atom -0.1228463925000000 -0.1353290625000000 18.1276254600000009 Ga
atom 4.7553153325000004 2.8574264375000000 6.0951237200000001 Al
atom 4.6734177375000003 2.7672070625000003 18.1802073600000007 Ga
atom 3.1949743874999998 0.0216473425000000 6.0645708599999999 In
atom 3.1130767924999998 -0.0685720325000000 18.1496545000000005 Al
atom 1.5193921474999998 2.7906694075000003 6.0730946800000005 Ga
atom 1.4374945524999998 2.7004500325000005 18.1581783200000011 Al
atom 0.0000000000000000 0.0000000000000000 0.0000000000000000 Al
atom -0.0818975950000000 -0.0902193750000000 12.0850836400000006 Ga
atom 4.7962641300000000 2.9025361250000001 0.0525819000000000 Al
atom 4.7143665349999999 2.8123167499999999 12.1376655400000004 Al
atom 3.2359231849999999 0.0667570300000000 0.0220290400000000 In
atom 3.1540255899999998 -0.0234623450000000 12.1071126800000002 Ga
atom 1.5603409449999999 2.8357790950000004 0.0305528600000000 Al
atom 1.4784433499999998 2.7455597200000001 12.1156365000000008 In
atom -0.0588843223735000 1.8455253828780001 3.0342951674440002 In
atom -0.1407819173735000 1.7553060078780001 15.1193788074440008 Al
atom -1.7344665623735001 4.6145474478780004 3.0428189874439999 In
atom -1.8163641573735001 4.5243280728780002 15.1279026274440014 In
atom 3.1770388626265000 1.9122824128780000 3.0563242074440002 Al
atom 3.0951412676265000 1.8220630378780001 15.1414078474440004 In
atom 1.5014566226264996 4.6813044778780011 3.0648480274440000 Al
atom 1.4195590276264995 4.5910851028780009 15.1499316674440010 Ga
atom 1.5373276723734997 0.9000343371219999 9.0813413325560006 In
atom 1.4554300773734996 0.8098149621219999 21.1664249725560012 Al
atom -0.1382545676265001 3.6690564021220000 9.0898651525560012 Al
atom -0.2201521626265001 3.5788370271220002 21.1749487925560018 Ga
atom 4.7732508573735002 0.9667913671220000 9.1033703725560002 Al
atom 4.6913532623735001 0.8765719921220000 21.1884540125560008 In
atom 3.0976686173735004 3.7358134321219998 9.1118941925560009 Al
atom 3.0157710223735004 3.6455940571220000 21.1969778325560014 In
atom -0.0723073381940000 1.8307384273155001 5.0150403760400000 O
atom -0.1542049331940001 1.7405190523155001 17.1001240160399988 O
atom -1.7478895781940000 4.5997604923155002 5.0235641960399997 O
atom -1.8297871731940001 4.5095411173155009 17.1086478360399994 O
atom 3.1636158468059996 1.8974954573155001 5.0370694160400005 O
atom 3.0817182518060000 1.8072760823155001 17.1221530560399984 O
atom 1.4880336068059996 4.6665175223155009 5.0455932360400002 O
atom 1.4061360118059996 4.5762981473155016 17.1306768760399990 O
atom 1.5507506881939996 0.9148212926845000 7.1005961239600000 O
atom 1.4688530931939996 0.8246019176844999 19.1856797639600032 O
atom -0.1248315518060001 3.6838433576845002 7.1091199439599997 O
atom -0.2067291468060001 3.5936239826845000 19.1942035839600003 O
atom 4.7866738731940002 0.9815783226845001 7.1226251639599996 O
atom 4.7047762781940001 0.8913589476845000 19.2077088039600028 O
atom 3.1110916331940004 3.7506003876845000 7.1311489839600002 O
atom 3.0291940381940003 3.6603810126844998 19.2162326239600034 O
atom 1.5239046565529997 0.8852473815594999 11.0620865411520004 O
atom 1.4420070615529996 0.7950280065594999 23.1471701811519992 O
atom -0.1516775834470001 3.6542694465595003 11.0706103611520010 O
atom -0.2335751784470001 3.5640500715595000 23.1556940011519998 O
atom 4.7598278415530002 0.9520044115595000 11.0841155811520018 O
atom 4.6779302465530002 0.8617850365595000 23.1691992211519988 O
atom 3.0842456015530004 3.7210264765595000 11.0926394011520006 O
atom 3.0023480065530004 3.6308071015594998 23.1777230411519994 O
atom -0.0454613065530000 1.8603123384405000 1.0535499588480000 O
atom -0.1273589015530001 1.7700929634405000 13.1386335988480010 O
atom -1.7210435465530001 4.6293344034405006 1.0620737788479999 O
atom -1.8029411415530001 4.5391150284405004 13.1471574188480016 O
atom 3.1904618784470000 1.9270693684405000 1.0755789988480000 O
atom 3.1085642834470000 1.8368499934405000 13.1606626388480006 O
atom 1.5148796384469996 4.6960914334405013 1.0841028188480000 O
atom 1.4329820434469995 4.6058720584405011 13.1691864588480012 O
atom -0.0204743987500000 -0.0225548437500000 3.0212709100000001 O
atom -0.1023719937500000 -0.1127742187500000 15.1063545500000007 O
atom 4.7757897312499997 2.8799812812500001 3.0738528100000000 O
atom 4.6938921362499997 2.7897619062500003 15.1589364500000006 O
atom 3.2154487862500001 0.0442021862500000 3.0432999500000002 O
atom 3.1335511912500000 -0.0460171887500000 15.1283835900000003 O
atom 1.5398665462499999 2.8132242512500003 3.0518237699999999 O
atom 1.4579689512499998 2.7230048762500005 15.1369074100000010 O
atom -0.0614231962500000 -0.0676645312500000 9.0638127300000004 O
atom -0.1433207912500000 -0.1578839062500000 21.1488963700000028 O
atom 4.7348409337500001 2.8348715937500000 9.1163946300000003 O
atom 4.6529433387500001 2.7446522187500002 21.2014782700000026 O
atom 3.1744999887500001 -0.0009075012500000 9.0858417700000000 O
atom 3.0926023937500000 -0.0911268762500000 21.1709254100000024 O
atom 1.4989177487499998 2.7681145637500002 9.0943655900000007 O
atom 1.4170201537499998 2.6778951887500004 21.1794492299999995 O
