#=======================================================
#Created using the Atomic Simulation Environment (ASE)
#=======================================================
lattice_vector 9.2017018400000001 0.0242167700000000 -0.0272811900000000 
lattice_vector -0.0240212900000000 9.2010700700000001 0.0169970600000000 
lattice_vector 0.0268368700000000 -0.0172492800000000 9.2013954299999998 
atom 6.9153987100000007 2.3054931349999999 6.8848349449999997 Al
atom 2.3025371450000001 6.8939197849999996 6.9069740699999995 Al
atom 6.8899696300000004 6.9146528099999998 2.2926357600000000 Al
atom 6.9033880650000006 6.9060281699999999 6.8933334749999995 Al
atom 2.2891187100000003 6.9025444249999994 2.3062763550000001 Al
atom 6.9019802750000006 2.3141177750000002 2.2841372299999998 Al
atom 2.3145477899999998 2.2933847500000000 6.8984755399999997 Al
atom 2.3011293550000000 2.3020093900000003 2.2977778249999998 Al
atom 6.9035008938600004 4.2972365901200007 4.5881574524600000 Al
atom 2.2772208938600000 8.8942878801200003 0.0095988624600000 Al
atom 6.8884490111400005 4.9315339948800005 -0.0113844624600000 In
atom 4.5953409339200002 6.9048727730200001 4.2869574703800000 Al
atom 0.0199190939200000 2.2836047130199999 8.8927972503799992 Al
atom -0.0036850789200000 6.8915914369799998 4.9262929546200001 Ga
atom 4.2961100649400006 4.5988830898200002 6.8968320679600001 Al
atom 8.8955531949399997 0.0190810798200000 2.2739952279600000 In
atom 4.9338364350600008 -0.0000052048200000 6.8864784170400002 Al
atom 2.3010165261400002 4.9108009698800004 4.6029538475400003 Al
atom 6.9004596561400007 0.3309989598800000 -0.0198829924600000 Al
atom 2.2892315388600002 4.2937528451200002 0.0011003324600000 Al
atom 4.6091764860800000 2.3031647869800000 4.9041538296200002 Al
atom -0.0171035139200000 6.9002160769800005 0.3255952396200000 Al
atom 0.0065006589200000 2.2922293530200002 4.2920995353800002 Al
atom 4.9084073550600005 4.6091544701800000 2.2942792320400001 Al
atom 0.3329855150600000 -0.0121135898200000 6.9001190120400002 Al
atom 4.2947022749400006 0.0069726948200000 2.2876358229600000 In
atom 2.3130271711400003 0.3102659348800000 4.5944553175399996 In
atom 4.5957580510799998 2.3117894269799999 0.3034561146200000 Al
atom 0.3075564350600000 4.5970460851799997 2.3079198270400001 In
atom 6.8914902488600003 8.8977716251199990 4.5966559824599997 Al
atom 4.6087593689199995 6.8962481330200003 8.8876551853799999 Al
atom 8.8969609849399998 4.6109914748199996 6.8831914729600001 Al
atom 5.7132678031299999 3.6013172670900002 6.0258469147399998 O
atom 3.4978940480900005 8.1927974126500018 7.7707552711799996 O
atom 8.0870552053100013 5.6220715425500005 1.4217614494199999 O
atom 5.7130764934700000 5.6039076777100005 7.7594146146599998 O
atom 6.0319164234100002 5.7138051760400002 3.5903873296900000 O
atom 7.7810199139299998 3.5014764720000002 8.1818768865700005 O
atom 1.4306704056699999 8.0902146661999996 5.6143513640300000 O
atom 7.7676868069899996 5.7145975857600009 5.5911626697100001 O
atom 3.5987463126000003 6.0346761693900000 5.7053482926700001 O
atom 8.1886403812800008 7.7807255547500001 3.4865682417500001 O
atom 5.6237055449200000 1.4349355774500001 8.0832652750499996 O
atom 5.6002013112000002 7.7697565984100008 5.7025964405299998 O
atom 3.4912496168700002 5.6067202929100004 3.1652643852599995 O
atom 5.7066233719100001 1.0152401473500001 1.4203560288199999 O
atom 1.1174622146900000 3.5859660174500001 7.7693498505799994 O
atom 3.4914409265300006 3.6041298822900001 1.4316966853399999 O
atom 3.1726009965899999 3.4942323839600000 5.6007239703099998 O
atom 1.4234975060700001 5.7065610880000008 1.0092344134300000 O
atom 7.7738470143300002 1.1178228938000001 3.5767599359700002 O
atom 1.4368306130100001 3.4934399742400002 3.5999486302900001 O
atom 5.6057711073999998 3.1733613906099998 3.4857630073300001 O
atom 1.0158770387200000 1.4273120052500001 5.7045430582499996 O
atom 3.5808118750799998 7.7731019825500001 1.1078460249500000 O
atom 3.6043161088000000 1.4382809615900001 3.4885148594700000 O
atom 1.0869878031300000 8.1983685570900011 1.4472883247399999 O
atom 8.0973371780900010 3.6129954026500002 3.1479184311799995 O
atom 3.5116333653100003 1.0008034825499998 6.0276012294200001 O
atom 1.1108177834700002 0.9998888977100000 3.1638589646599997 O
atom 1.4564945834100000 1.0925371160399999 8.1962271096899997 O
atom 3.1547399139299999 8.0985277619999998 3.6033182965699999 O
atom 6.0301135356700000 3.5104126562000002 0.9915145240300000 O
atom 3.1654280969899999 1.1105788057599999 0.9956070197100000 O
atom 8.1981894426000004 1.4548741593900001 1.0825114526699999 O
atom 3.6132185412800002 3.1594574947499998 8.0924080217499998 O
atom 0.9974255449199999 6.0319868674499997 3.5047066850499999 O
atom 0.9979426011999999 3.1657378184099993 1.1070407905299999 O
atom 8.1175296168699997 1.0096690029100002 7.7438229752599996 O
atom 1.1071802419100001 5.5950421573500009 6.0431928688200003 O
atom 5.6928840546899995 8.2072340774499999 3.1635100705799997 O
atom 8.0936996365300011 8.2081486622900002 6.0272523353400000 O
atom 7.7480228365899997 8.1155004439600003 0.9948841903100000 O
atom 6.0497775060699999 1.1095097980000002 5.5877930034299998 O
atom 3.1744038843300002 5.6976249038000004 8.1995967759700008 O
atom 6.0390893230099998 8.0974587542400016 8.1955042802900007 O
atom 1.0063279774000000 7.7531634006100001 8.1085998473299998 O
atom 5.5912988787200000 6.0485800652500004 1.0987032782499999 O
atom 8.2070918750800015 3.1760506925499996 5.6864046149499998 O
atom 8.2065748188000001 6.0422997415899999 8.0840705094699992 O
