#=======================================================
#Created using the Atomic Simulation Environment (ASE)
#=======================================================
lattice_vector 9.8152446999999992 -0.2121946900000000 -0.8200407500000000 
lattice_vector 4.9753195799999999 2.9332029199999998 -0.3844406800000000 
lattice_vector -1.4567783900000000 -0.0910938700000000 14.4790238200000001 
atom 2.9682527911397747 -0.0897094549385904 2.7431164702265538 Al
atom 5.3902135188602243 -0.2135791050614096 10.9158665997734463 Al
atom -0.1820972987500000 -0.0113867337500000 1.8098779775000000 Al
atom -1.2746810912500000 -0.0797071362500000 12.6691458425000008 In
atom 6.3007000126102239 -0.1566454363114096 1.8664767122734462 In
atom 2.0577662973897746 -0.1466431236885904 11.7925063577265536 In
atom 10.1814376323897768 1.2594079263114093 3.9507537327265534 Al
atom 8.0599706076102251 1.2644090886885904 8.9137682822734465 In
atom 3.1523482576102237 1.3705064336885904 9.3237886572734450 Al
atom 5.2738152823897746 1.3655052713114095 4.3607741077265532 Al
atom 5.7544081999448871 -0.1908056405942952 7.2961107813632768 Al
atom 2.6040581100551119 -0.1124829194057048 6.3628722886367228 Al
atom -0.7283891950000000 -0.0455469350000000 7.2395119100000001 In
atom 4.9076223499999996 -0.1060973450000000 -0.4100203750000000 Al
atom 2.4876597899999999 1.4666014599999999 -0.1922203400000000 Al
atom 7.3952821399999991 1.3605041149999999 -0.6022407150000000 Al
atom 4.6064347810448876 -0.1304372678942952 3.2284003935632768 O
atom 3.7520315289551114 -0.1728512921057048 10.4305826764367229 O
atom 3.1576339964075588 -0.0778672509276517 0.8608432288363157 O
atom 5.2008323135924401 -0.2254213090723483 12.7981398411636853 O
atom 6.9945880812924397 1.2775001358276517 3.0438688753636840 O
atom 1.4288675695075590 1.3369395585723483 10.6396707018363159 O
atom 6.3391978087075582 1.3524142241723482 10.2306735146363152 O
atom 11.9049183204924400 1.2929748014276516 2.6348716881636842 O
atom -0.3714784894500000 -0.0232289368500000 3.6921510740999999 O
atom -1.0852999005499999 -0.0678649331500000 10.7868727459000002 O
atom 7.9949654113448867 -0.1828536107942952 0.5045533041632768 O
atom 0.3635008986551123 -0.1204349492057048 13.1544297658367224 O
atom 10.5821315929448883 1.3424119076057048 0.3046441505632768 O
atom 7.6619846344075588 1.3029771158723482 12.5609010440363154 O
atom 2.7516542970551114 1.2875024523942951 12.9698982394367217 O
atom 5.6718012555924400 1.3269372441276517 0.7136413459636843 O
atom 7.3925901898499990 -0.2315334535500000 7.7813947046999994 O
atom 0.9658761201499999 -0.0717551064500000 5.8775883652999994 O
atom 5.9437893070602241 -0.1789634344614096 5.4138375481734462 O
atom 2.4146770029397748 -0.1243251255385904 8.2451455218265544 O
atom 9.7807435882499991 1.1764039480499999 7.5968631782999996 O
atom 8.4579567625499994 1.2258410563499997 5.2666356488999995 O
atom 3.5530423017500001 1.4535104119499997 5.6776792117000001 O
atom 4.8758291274500003 1.4040733036499999 8.0079067410999993 O
