#=======================================================
#Created using the Atomic Simulation Environment (ASE)
#=======================================================
lattice_vector 4.8965968300000000 0.0143298700000000 0.0012184800000000 
lattice_vector -2.4607176100000001 4.2331372600000003 -0.0031847500000000 
lattice_vector -0.0066087000000000 0.0097152300000000 13.3033333200000001 
atom -0.0009770566428000 0.0014363384641200 1.9668180113620801 Al
atom -0.0042814066428000 0.0062939534641200 8.6184846713620793 Al
atom -0.0056316433572000 0.0082788915358800 11.3365153086379209 Al
atom -0.0023272933572000 0.0034212765358800 4.6848486486379199 Al
atom 2.4409787512369436 1.4252737343690447 6.4010131436989797 Al
atom 2.4376744012369436 1.4301313493690446 13.0526798036989788 Al
atom 2.4429328645225437 1.4224010574408046 2.4673771209748199 In
atom 2.4396285145225436 1.4272586724408045 9.1190437809748204 Al
atom -0.0136623445225440 2.8347813025591959 10.8339899290251811 Ga
atom -0.0103579945225440 2.8299236875591958 4.1823232690251801 Al
atom -0.0117082312369440 2.8319086256309558 6.9003539063010209 Al
atom -0.0084038812369440 2.8270510106309557 0.2486872463010203 Al
atom 3.3948232501612003 0.0123685785268000 3.3266785164671999 O
atom 0.7446037828391999 1.3036828374468001 3.3252309435228002 O
atom -1.7085043380004001 2.9387021365264001 3.3236242600099999 O
atom 1.6846667371608000 2.9534995225532001 9.9761361064772007 O
atom -0.7588219719996001 1.3041503534736001 9.9765243099899994 O
atom 1.4951648798388000 0.0116765214732000 9.9778732835327997 O
atom 0.9401822280409436 1.4218761044317247 7.7596551688040991 O
atom 3.1865595907189435 2.7275202333517248 7.7594260758596993 O
atom 3.1941690798793436 0.1294022724313246 7.7610041423468994 O
atom 1.6973520250405436 0.1201545584581246 1.1089641888140997 O
atom 1.6897425358801437 2.7182725193785249 1.1073861223268997 O
atom 3.9437293877185433 1.4257986873781248 1.1087350958696998 O
atom -1.5144588677185440 2.8313836726218757 12.1926319541303005 O
atom 0.7319184949594560 4.1370278015418753 12.1924028611859008 O
atom 0.7395279841198560 1.5389098406214754 12.1939809276731008 O
atom -0.7572890707189439 1.5296621266482755 5.5419409741403003 O
atom -0.7648985598793441 4.1277800875686754 5.5403629076531002 O
atom 1.4890882919590560 2.8353062555682755 5.5417118811959005 O
