#=======================================================
#Created using the Atomic Simulation Environment (ASE)
#=======================================================
lattice_vector 6.3523377500000002 -0.0203401900000000 0.0066735800000000 
lattice_vector -3.1586657200000001 5.5114018600000003 0.0013533100000000 
lattice_vector -0.0149423000000000 -0.0121168900000000 15.6070576600000006 
atom -0.0019108740703190 -0.0015495506658217 1.9958856264743399 In
atom -0.0130314259296810 -0.0105673393341783 13.6111720335256621 In
atom -1.5330273298826291 4.5591157091289585 5.0956082102951994 Ga
atom 0.0011249232582069 1.8822482179138396 5.0949509126354462 In
atom 1.5522796116426962 4.5492365541046613 5.0988495434089538 In
atom 1.6264501183573044 0.9297082258953397 10.5162350065910477 In
atom 4.7117570598826299 0.9198290708710427 10.5194763397048003 In
atom 3.1776048067417930 3.5966965620861613 10.5201336373645535 Ga
atom 0.0091025884871342 3.6654069401629834 2.6834402085765872 Ga
atom 3.1696271415128661 1.8135378398370166 12.9316443414234126 In
atom 0.0034135196439482 3.6607936061129838 8.6256061045439694 Ga
atom 3.1753162103560522 1.8181511738870164 6.9894784454560321 In
atom -0.0074711500000000 -0.0060584450000000 7.8035288300000003 In
atom 3.1761688750000001 -0.0101700950000000 0.0033367900000000 Ga
atom -1.5793328600000001 2.7557009300000002 0.0006766550000000 In
atom 1.5968360150000001 2.7455308350000003 0.0040134450000000 In
atom 1.5913713179671751 2.7434647513924020 3.9376880363680762 O
atom 0.0137307131266650 5.4962129478459074 3.9383639663322434 O
atom -1.5813942920832627 2.7536239491356098 3.9343548217385611 O
atom 4.7601240220832635 2.7253208308643910 11.6807297282614382 O
atom 1.5873584120328250 2.7354800286075984 11.6773965136319244 O
atom 3.1649990168733351 -0.0172681678459071 11.6767205836677554 O
atom -0.0021622604162128 3.6562721392937414 14.4494431910976449 O
atom 3.1808919904162130 1.8226726407062588 1.1656413589023553 O
atom -0.0038707956426960 -0.0031388745383928 4.0430007954353231 O
atom -0.0110715043573040 -0.0089780154616072 11.5640568645646766 O
atom -1.4923343867676615 4.5405089018145164 1.2996772547184954 O
atom 0.0048955278656364 1.9280653994493469 1.2990357761970606 O
atom 1.5187186812836091 4.5308675077459712 1.3028405788874418 O
atom 1.6600110487163913 0.9480772722540298 14.3122439711125597 O
atom 4.6710641167676616 0.9384358781854847 14.3154072952815046 O
atom 3.1738342021343637 3.5508793805506538 14.3160487738029403 O
atom -1.7085178346293362 4.6557647865172358 9.1599956631719976 O
atom -0.0033980613949200 1.6805844025268271 9.1592651155785294 O
atom 1.7206189161213641 4.6447846881989037 9.1635982138136214 O
atom 1.4581108138786363 0.8341600918010974 6.4514863361863792 O
atom 4.8872475646293365 0.8231799934827654 6.4550888868280039 O
atom 3.1821277913949202 3.7983603774731738 6.4558194344214712 O
atom 0.0054245302848322 3.6624243587229848 6.5251290008082554 O
atom 3.1733051997151680 1.8165204212770152 9.0899555491917443 O
