#=======================================================
#Created using the Atomic Simulation Environment (ASE)
#=======================================================
lattice_vector 6.1116357700000004 -0.0130181600000000 -0.0241591800000000 
lattice_vector -3.0442760600000001 5.2983191300000003 0.0184682600000000 
lattice_vector 0.0557171700000000 -0.0232749900000000 14.3888624400000005 
atom 0.0610901405445699 3.5055681856987082 13.7935855705125494 Al
atom 1.5429660501857241 2.6387713199224172 2.3952983279628746 In
atom 3.0651040801857241 -0.0103882450775833 2.3860641979628747 Ga
atom -1.5128518348142761 2.6452803999224170 2.4073779179628749 Ga
atom 3.0596651905197065 1.7574275856288757 -0.0099500334754248 Ga
atom 3.0805591292697065 1.7486994643788756 5.3858733815245756 Ga
atom 0.0162508414357239 -0.0067885388275833 4.1967515929628751 Al
atom -1.4904321394802940 4.4014587356288759 7.2057949065245754 In
atom 0.0317058905197061 1.7522991706288757 7.1965607765245752 In
atom 1.5653857455197062 4.3949496556288761 7.1937153165245755 Ga
atom 0.0471608480445699 3.5113869331987080 10.1963699605125502 Ga
atom 3.0944884217697064 1.7428807168788756 8.9830889915245749 In
atom 4.6320814092945701 0.8528089144487077 11.9736640455125496 In
atom 3.1099433792945699 3.5019684794487080 11.9828981755125508 Ga
atom 1.5762635242945697 0.8593179944487076 11.9857436355125504 Al
atom 0.0371447801857239 -0.0155166600775833 9.5925750079628749 Ga
atom 4.5293470427697065 0.9056352450788758 1.2062828835245754 O
atom 3.0680945339697065 3.4488284274788761 1.2151476483245753 O
atom 1.5957618731697063 0.9118839618788758 1.2178792899245754 O
atom 0.0507954868357239 -0.0212190326275833 13.1178463057628747 O
atom 0.0126162026445699 3.5258174269987079 1.2752752477125500 O
atom 1.6457005082697060 2.5859449361788758 13.1626794895245762 O
atom 3.1069530170697059 0.0427517537788757 13.1538147247245760 O
atom 4.5792856778697066 2.5796962193788757 13.1510830831245755 O
atom 1.4959487615445703 2.6683227138987080 6.0167794625125506 O
atom 0.0346962527445703 5.2115158962987076 6.0256442273125499 O
atom -1.4376364080554300 2.6745714306987081 6.0283758689125504 O
atom 3.0733158971697065 1.7517252130788756 3.5153212643245753 O
atom 0.0234940735357239 -0.0098142875275833 6.0673037101628751 O
atom -1.4434149429554299 4.3719073949987086 3.5843136285125499 O
atom 0.0178375658445699 1.8287142125987077 3.5754488637125501 O
atom 1.4901702266445707 4.3656586781987086 3.5727172221125501 O
atom -1.5374494275642758 4.4310101293724165 10.8272761849628747 O
atom 0.0455741236357240 1.6758841817724168 10.8176726897628743 O
atom 1.6406011728357248 4.4242406861724168 10.8147134113628756 O
atom 0.0399176159445699 3.5144126818987083 8.3258178433125494 O
atom 3.1017316538697064 1.7398549681788757 10.8536411087245757 O
atom 4.6790986979357241 0.8232575204724167 8.3521829109628758 O
atom 3.0960751467357239 3.5783834680724169 8.3617864061628762 O
atom 1.5010480975357241 0.8300269636724167 8.3647456845628767 O
