lattice_vector    10.11000000     0.00000000     0.00000000
lattice_vector     0.00000000    10.11000000     0.00000000
lattice_vector     0.00000000     0.00000000    10.11000000
atom_frac     0.75000000     0.25000000     0.75000000   In
atom_frac     0.25000000     0.75000000     0.75000000   Ga
atom_frac     0.75000000     0.75000000     0.25000000   In
atom_frac     0.75000000     0.75000000     0.75000000   In
atom_frac     0.25000000     0.75000000     0.25000000   In
atom_frac     0.75000000     0.25000000     0.25000000   In
atom_frac     0.25000000     0.25000000     0.75000000   In
atom_frac     0.25000000     0.25000000     0.25000000   In
atom_frac     0.75000000     0.46600000     0.50000000   In
atom_frac     0.25000000     0.96600000     0.00000000   In
atom_frac     0.75000000     0.53400000     0.00000000   In
atom_frac     0.50000000     0.75000000     0.46600000   In
atom_frac     0.00000000     0.25000000     0.96600000   In
atom_frac     0.00000000     0.75000000     0.53400000   In
atom_frac     0.46600000     0.50000000     0.75000000   In
atom_frac     0.96600000     0.00000000     0.25000000   In
atom_frac     0.53400000     0.00000000     0.75000000   Al
atom_frac     0.25000000     0.53400000     0.50000000   In
atom_frac     0.75000000     0.03400000     0.00000000   Ga
atom_frac     0.25000000     0.46600000     0.00000000   In
atom_frac     0.50000000     0.25000000     0.53400000   In
atom_frac     0.00000000     0.75000000     0.03400000   In
atom_frac     0.00000000     0.25000000     0.46600000   In
atom_frac     0.53400000     0.50000000     0.25000000   In
atom_frac     0.03400000     0.00000000     0.75000000   In
atom_frac     0.46600000     0.00000000     0.25000000   In
atom_frac     0.25000000     0.03400000     0.50000000   In
atom_frac     0.50000000     0.25000000     0.03400000   In
atom_frac     0.03400000     0.50000000     0.25000000   In
atom_frac     0.75000000     0.96600000     0.50000000   In
atom_frac     0.50000000     0.75000000     0.96600000   In
atom_frac     0.96600000     0.50000000     0.75000000   In
atom_frac     0.62000000     0.39100000     0.65600000    O
atom_frac     0.38000000     0.89100000     0.84400000    O
atom_frac     0.88000000     0.60900000     0.15600000    O
atom_frac     0.62000000     0.60900000     0.84400000    O
atom_frac     0.65600000     0.62000000     0.39100000    O
atom_frac     0.84400000     0.38000000     0.89100000    O
atom_frac     0.15600000     0.88000000     0.60900000    O
atom_frac     0.84400000     0.62000000     0.60900000    O
atom_frac     0.39100000     0.65600000     0.62000000    O
atom_frac     0.89100000     0.84400000     0.38000000    O
atom_frac     0.60900000     0.15600000     0.88000000    O
atom_frac     0.60900000     0.84400000     0.62000000    O
atom_frac     0.38000000     0.60900000     0.34400000    O
atom_frac     0.62000000     0.10900000     0.15600000    O
atom_frac     0.12000000     0.39100000     0.84400000    O
atom_frac     0.38000000     0.39100000     0.15600000    O
atom_frac     0.34400000     0.38000000     0.60900000    O
atom_frac     0.15600000     0.62000000     0.10900000    O
atom_frac     0.84400000     0.12000000     0.39100000    O
atom_frac     0.15600000     0.38000000     0.39100000    O
atom_frac     0.60900000     0.34400000     0.38000000    O
atom_frac     0.10900000     0.15600000     0.62000000    O
atom_frac     0.39100000     0.84400000     0.12000000    O
atom_frac     0.39100000     0.15600000     0.38000000    O
atom_frac     0.12000000     0.89100000     0.15600000    O
atom_frac     0.88000000     0.39100000     0.34400000    O
atom_frac     0.38000000     0.10900000     0.65600000    O
atom_frac     0.12000000     0.10900000     0.34400000    O
atom_frac     0.15600000     0.12000000     0.89100000    O
atom_frac     0.34400000     0.88000000     0.39100000    O
atom_frac     0.65600000     0.38000000     0.10900000    O
atom_frac     0.34400000     0.12000000     0.10900000    O
atom_frac     0.89100000     0.15600000     0.12000000    O
atom_frac     0.39100000     0.34400000     0.88000000    O
atom_frac     0.10900000     0.65600000     0.38000000    O
atom_frac     0.10900000     0.34400000     0.12000000    O
atom_frac     0.88000000     0.10900000     0.84400000    O
atom_frac     0.12000000     0.60900000     0.65600000    O
atom_frac     0.62000000     0.89100000     0.34400000    O
atom_frac     0.88000000     0.89100000     0.65600000    O
atom_frac     0.84400000     0.88000000     0.10900000    O
atom_frac     0.65600000     0.12000000     0.60900000    O
atom_frac     0.34400000     0.62000000     0.89100000    O
atom_frac     0.65600000     0.88000000     0.89100000    O
atom_frac     0.10900000     0.84400000     0.88000000    O
atom_frac     0.60900000     0.65600000     0.12000000    O
atom_frac     0.89100000     0.34400000     0.62000000    O
atom_frac     0.89100000     0.65600000     0.88000000    O
